     Program PHONON v.6.6 starts on 20Mar2022 at 23:16:17

     K-points division:     npool     =      40
     Fft bands division:     nmany     =       1

     Reading xml data from directory:

     ./rbbr.save/
     file Rb.pbe-spn-kjpaw_psl.1.0.0.UPF: wavefunction(s)  4S renormalized
     file Br.pbe-n-kjpaw_psl.1.0.0.UPF: wavefunction(s)  4S 4P renormalized

     IMPORTANT: XC functional enforced from input :
     Exchange-correlation= PBE
                           (   1   4   3   4   0   0   0)
     Any further DFT definition will be discarded
     Please, verify this is what you really want

     Check: negative core charge=   -0.000002
     Message from routine divide_et_impera:
     suboptimal parallelization: some nodes have no k-points
     Reading collected, re-writing distributed wavefunctions

     Dynamical matrices for ( 6, 6, 6)  uniform grid of q-points
     (  16 q-points):
       N         xq(1)         xq(2)         xq(3)
       1   0.000000000   0.000000000   0.000000000
       2  -0.166666667   0.166666667  -0.166666667
       3  -0.333333333   0.333333333  -0.333333333
       4   0.500000000  -0.500000000   0.500000000
       5   0.000000000   0.333333333   0.000000000
       6  -0.166666667   0.500000000  -0.166666667
       7   0.666666667  -0.333333333   0.666666667
       8   0.500000000  -0.166666667   0.500000000
       9   0.333333333   0.000000000   0.333333333
      10   0.000000000   0.666666667   0.000000000
      11   0.833333333  -0.166666667   0.833333333
      12   0.666666667  -0.000000000   0.666666667
      13   0.000000000  -1.000000000   0.000000000
      14   0.666666667  -0.333333333   1.000000000
      15   0.500000000  -0.166666667   0.833333333
      16  -0.333333333  -1.000000000   0.000000000

     Saving dvscf to file. Distribute only q points, not irreducible represetations.

     Calculation of q =    0.0000000   0.0000000   0.0000000

     phonon

     bravais-lattice index     =            2
     lattice parameter (alat)  =      13.2560  a.u.
     unit-cell volume          =     582.3356 (a.u.)^3
     number of atoms/cell      =            2
     number of atomic types    =            2
     kinetic-energy cut-off    =      66.0000  Ry
     charge density cut-off    =     264.0000  Ry
     convergence threshold     =      1.0E-22
     beta                      =       0.7000
     number of iterations used =            4
     Exchange-correlation= PBE
                           (   1   4   3   4   0   0   0)

     celldm(1)=   13.25596  celldm(2)=    0.00000  celldm(3)=    0.00000
     celldm(4)=    0.00000  celldm(5)=    0.00000  celldm(6)=    0.00000

     crystal axes: (cart. coord. in units of alat)
               a(1) = ( -0.5000  0.0000  0.5000 )
               a(2) = (  0.0000  0.5000  0.5000 )
               a(3) = ( -0.5000  0.5000  0.0000 )

     reciprocal axes: (cart. coord. in units 2 pi/alat)
               b(1) = ( -1.0000 -1.0000  1.0000 )
               b(2) = (  1.0000  1.0000  1.0000 )
               b(3) = ( -1.0000  1.0000 -1.0000 )

     Atoms inside the unit cell:

     Cartesian axes

     site n.  atom      mass           positions (alat units)
        1     Rb  85.4678   tau(    1) = (    0.00000    0.00000    0.00000  )
        2     Br  79.9040   tau(    2) = (   -0.50000    0.50000    0.50000  )

     Computing dynamical matrix for
                    q = (   0.0000000   0.0000000   0.0000000 )

     49 Sym.Ops. (with q -> -q+G )

     G cutoff = 1175.0773  (  42087 G-vectors)     FFT grid: ( 50, 50, 50)
     number of k points=    16

     PseudoPot. # 1 for Rb read from file:
     /scratch1/fanchem/RbBr/pp/Rb.pbe-spn-kjpaw_psl.1.0.0.UPF
     MD5 check sum: a11e6fb9d11e64d6427b9eb26aa4a0b1
     Pseudo is Projector augmented-wave + core cor, Zval =  9.0
     Generated using "atomic" code by A. Dal Corso v.6.2.2
     Shape of augmentation charge: PSQ
     Using radial grid of 1219 points,  6 beta functions with:
                l(1) =   0
                l(2) =   0
                l(3) =   1
                l(4) =   1
                l(5) =   2
                l(6) =   2
     Q(r) pseudized with 0 coefficients

     PseudoPot. # 2 for Br read from file:
     /scratch1/fanchem/RbBr/pp/Br.pbe-n-kjpaw_psl.1.0.0.UPF
     MD5 check sum: b00de77caabc69c0a6b76eb37264f235
     Pseudo is Projector augmented-wave + core cor, Zval =  7.0
     Generated using "atomic" code by A. Dal Corso v.6.3
     Shape of augmentation charge: PSQ
     Using radial grid of 1213 points,  4 beta functions with:
                l(1) =   0
                l(2) =   0
                l(3) =   1
                l(4) =   1
     Q(r) pseudized with 0 coefficients

     Mode symmetry, O_h (m-3m)  point group:

     Electric field:
     Dielectric constant
     Born effective charges in two ways

     Atomic displacements:
     There are    2 irreducible representations

     Representation     1      3 modes -  To be done

[...]

     Alpha used in Ewald sum =   2.6000

     Electric Fields Calculation

      thresh= 1.000E-02 alpha_mix =  0.700 |ddv_scf|^2 =  5.729E-08

[...]

     End of electric fields calculation

          Dielectric constant in cartesian axis

          (       2.464149161      -0.000000000      -0.000000000 )
          (      -0.000000000       2.464149161       0.000000000 )
          (      -0.000000000      -0.000000000       2.464149161 )

          Effective charges (d Force / dE) in cartesian axis

           atom      1   Rb
      Ex  (        1.16418       -0.00000       -0.00000 )
      Ey  (       -0.00000        1.16418        0.00000 )
      Ez  (       -0.00000        0.00000        1.16418 )
           atom      2   Br
      Ex  (       -1.16532        0.00000       -0.00000 )
      Ey  (        0.00000       -1.16532        0.00000 )
      Ez  (       -0.00000        0.00000       -1.16532 )

     Representation #   1 modes #   1   2   3

     Self-consistent Calculation

[...]

     End of self-consistent calculation

     Convergence has been achieved

[...]

     Number of q in the star =    1
     List of q in the star:
          1   0.000000000   0.000000000   0.000000000

          Dielectric constant in cartesian axis

          (       2.464149161      -0.000000000      -0.000000000 )
          (      -0.000000000       2.464149161       0.000000000 )
          (      -0.000000000      -0.000000000       2.464149161 )

          Effective charges (d Force / dE) in cartesian axis

[...]

          Effective charges (d P / du) in cartesian axis

           atom      1   Rb
      Px  (        1.16418       -0.00000       -0.00000 )
      Py  (        0.00000        1.16418        0.00000 )
      Pz  (       -0.00000        0.00000        1.16418 )
           atom      2   Br
      Px  (       -1.16532        0.00000       -0.00000 )
      Py  (        0.00000       -1.16532        0.00000 )
      Pz  (       -0.00000        0.00000       -1.16532 )

     Diagonalizing the dynamical matrix

     q = (    0.000000000   0.000000000   0.000000000 )

     freq (    1) =       0.135128 [THz] =       4.507384 [cm-1]
     freq (    2) =       0.135128 [THz] =       4.507384 [cm-1]
     freq (    3) =       0.135128 [THz] =       4.507384 [cm-1]
     freq (    4) =       2.291672 [THz] =      76.441954 [cm-1]
     freq (    5) =       2.291672 [THz] =      76.441954 [cm-1]
     freq (    6) =       2.291672 [THz] =      76.441954 [cm-1]

     Mode symmetry, O_h (m-3m)  point group:

     freq (   1-   3) =          4.5  [cm-1]   --> T_1u G_15  G_4- I
     freq (   4-   6) =         76.4  [cm-1]   --> T_1u G_15  G_4- I

[...]

     Subspace diagonalization in iterative solution of the eigenvalue problem:
     a serial algorithm will be used

     Title:
     phonon

     bravais-lattice index     =            2
     lattice parameter (alat)  =      13.2560  a.u.
     unit-cell volume          =     582.3356 (a.u.)^3
     number of atoms/cell      =            2
     number of atomic types    =            2
     number of electrons       =        16.00
     number of Kohn-Sham states=            8
     kinetic-energy cutoff     =      66.0000  Ry
     charge density cutoff     =     264.0000  Ry
     Exchange-correlation= PBE
                           (   1   4   3   4   0   0   0)

[...]

     atomic species   valence    mass     pseudopotential
        Rb             9.00    85.46780     Rb( 1.00)
        Br             7.00    79.90400     Br( 1.00)

     48 Sym. Ops., with inversion, found

[...]

     site n.     atom                  positions (alat units)
         1           Rb  tau(   1) = (   0.0000000   0.0000000   0.0000000  )
         2           Br  tau(   2) = (  -0.5000000   0.5000000   0.5000000  )

     number of k points=   112

     Number of k-points >= 100: set verbosity='high' to print them.

     Check: negative core charge=   -0.000002

     The potential is recalculated from file :
     ./_ph0/rbbr.q_2/rbbr.save/charge-density

     Starting wfcs are   12 atomic wfcs
     Checking if some PAW data can be deallocated...

     Band Structure Calculation
     Davidson diagonalization with overlap

     ethr =  6.25E-11,  avg # of iterations = 10.6

     End of band structure calculation

     Number of k-points >= 100: set verbosity='high' to print the bands.

     highest occupied level (ev):     0.8030

     Writing output data file ./_ph0/rbbr.q_2/rbbr.save/

[...]

      6 Sym.Ops. (no q -> -q+G )

[...]

     Mode symmetry, C_3v (3m)   point group:

[...]

     Representation #   1 mode #   1

[...]

     freq (   1-   2) =         23.2  [cm-1]   --> E    L_3
     freq (   3-   3) =         32.3  [cm-1]   --> A_1  L_1
     freq (   4-   5) =         74.7  [cm-1]   --> E    L_3
     freq (   6-   6) =        112.8  [cm-1]   --> A_1  L_1

[...]

     Mode symmetry, C_3v (3m)   point group:

     freq (   1-   2) =         42.9  [cm-1]   --> E    L_3
     freq (   3-   3) =         61.6  [cm-1]   --> A_1  L_1
     freq (   4-   5) =         69.1  [cm-1]   --> E    L_3
     freq (   6-   6) =        103.0  [cm-1]   --> A_1  L_1

     Calculation of q =    0.5000000  -0.5000000   0.5000000
     Message from routine divide_et_impera:
     suboptimal parallelization: some nodes have no k-points

[...]

     number of k points=    64
                       cart. coord. in units 2pi/alat
        k(    1) = (   0.0000000   0.0000000   0.0000000), wk =   0.0092593
        k(    2) = (   0.5000000  -0.5000000   0.5000000), wk =   0.0000000
        k(    3) = (  -0.1666667   0.1666667  -0.1666667), wk =   0.0185185
        k(    4) = (   0.3333333  -0.3333333   0.3333333), wk =   0.0000000
        k(    5) = (  -0.3333333   0.3333333  -0.3333333), wk =   0.0185185
        k(    6) = (   0.1666667  -0.1666667   0.1666667), wk =   0.0000000
        k(    7) = (   0.5000000  -0.5000000   0.5000000), wk =   0.0092593
        k(    8) = (   1.0000000  -1.0000000   1.0000000), wk =   0.0000000
        k(    9) = (   0.0000000   0.3333333   0.0000000), wk =   0.0555556
        k(   10) = (   0.5000000  -0.1666667   0.5000000), wk =   0.0000000
[...]
        k(   47) = (   0.5000000   0.1666667   0.5000000), wk =   0.0555556
        k(   48) = (   1.0000000  -0.3333333   1.0000000), wk =   0.0000000
        k(   49) = (  -0.5000000   0.1666667   0.5000000), wk =   0.1111111
        k(   50) = (   0.0000000  -0.3333333   1.0000000), wk =   0.0000000
        k(   51) = (  -0.3333333  -0.0000000   0.3333333), wk =   0.0555556
        k(   52) = (   0.1666667  -0.5000000   0.8333333), wk =   0.0000000
        k(   53) = (   0.8333333   0.1666667   0.8333333), wk =   0.0555556
        k(   54) = (   1.3333333  -0.3333333   1.3333333), wk =   0.0000000
        k(   55) = (  -0.8333333   0.1666667   0.8333333), wk =   0.1111111
        k(   56) = (  -0.3333333  -0.3333333   1.3333333), wk =   0.0000000
        k(   57) = (  -0.6666667   0.0000000   0.6666667), wk =   0.0555556
        k(   58) = (  -0.1666667  -0.5000000   1.1666667), wk =   0.0000000
        k(   59) = (   1.0000000   0.3333333   0.6666667), wk =   0.1111111
        k(   60) = (   1.5000000  -0.1666667   1.1666667), wk =   0.0000000
        k(   61) = (   0.8333333   0.1666667   0.5000000), wk =   0.1111111
        k(   62) = (   1.3333333  -0.3333333   1.0000000), wk =   0.0000000
        k(   63) = (  -0.8333333   0.1666667   0.5000000), wk =   0.0555556
        k(   64) = (  -0.3333333  -0.3333333   1.0000000), wk =   0.0000000

[...]

          k = 0.0000 0.0000 0.0000 (  5209 PWs)   bands (ev):

   -23.7697 -11.3135  -7.8363  -7.8363  -7.8363   0.8030   0.8030   0.8030

[...]

          k =-0.1667 0.1667-0.1667 (  5258 PWs)   bands (ev):

[...]

     Mode symmetry, D_3d (-3m)  point group:

[...]

     Mode symmetry, D_3d (-3m)  point group:

     freq (   1-   2) =         57.3  [cm-1]   --> E_u  L_3'
     freq (   3-   4) =         60.5  [cm-1]   --> E_g  L_3
     freq (   5-   5) =         83.4  [cm-1]   --> A_1g L_1
     freq (   6-   6) =         89.2  [cm-1]   --> A_2u L_2'

[...]

     Mode symmetry, C_4v (4mm)  point group:

[...]

     freq (   1-   2) =         17.9  [cm-1]   --> E    G_5 D_5
     freq (   3-   3) =         43.9  [cm-1]   --> A_1  G_1 D_1
     freq (   4-   5) =         77.1  [cm-1]   --> E    G_5 D_5
     freq (   6-   6) =        105.0  [cm-1]   --> A_1  G_1 D_1

[...]

     Mode symmetry, C_s (m)     point group:

[...]

     freq (   1-   1) =         31.5  [cm-1]   --> A''
     freq (   2-   2) =         36.7  [cm-1]   --> A'
     freq (   3-   3) =         62.4  [cm-1]   --> A'
     freq (   4-   4) =         71.2  [cm-1]   --> A'
     freq (   5-   5) =         75.5  [cm-1]   --> A''
     freq (   6-   6) =         97.3  [cm-1]   --> A'

[...]

     freq (   1-   1) =         43.1  [cm-1]   --> A'
     freq (   2-   2) =         56.1  [cm-1]   --> A''
     freq (   3-   3) =         60.8  [cm-1]   --> A''
     freq (   4-   4) =         71.8  [cm-1]   --> A'
     freq (   5-   5) =         74.4  [cm-1]   --> A'
     freq (   6-   6) =         91.1  [cm-1]   --> A'

[...]

     Mode symmetry, C_2v (mm2)  point group:

[...]

     freq (   1-   1) =         26.7  [cm-1]   --> B_2  D_4  S_4
     freq (   2-   2) =         40.5  [cm-1]   --> B_1  D_3  S_3
     freq (   3-   3) =         51.8  [cm-1]   --> A_1  D_1  S_1
     freq (   4-   4) =         69.0  [cm-1]   --> B_1  D_3  S_3
     freq (   5-   5) =         77.8  [cm-1]   --> B_2  D_4  S_4
     freq (   6-   6) =        103.9  [cm-1]   --> A_1  D_1  S_1

[...]

     Mode symmetry, C_4v (4mm)  point group:

     freq (   1-   2) =         29.7  [cm-1]   --> E    G_5 D_5
     freq (   3-   3) =         72.8  [cm-1]   --> A_1  G_1 D_1
     freq (   4-   5) =         78.3  [cm-1]   --> E    G_5 D_5
     freq (   6-   6) =         78.4  [cm-1]   --> A_1  G_1 D_1

[...]

     Calculation of q =    0.0000000  -1.0000000   0.0000000
     Message from routine divide_et_impera:
     suboptimal parallelization: some nodes have no k-points

[...]

     number of k points=    60
                       cart. coord. in units 2pi/alat
        k(    1) = (   0.0000000   0.0000000   0.0000000), wk =   0.0092593
        k(    2) = (   0.0000000  -1.0000000   0.0000000), wk =   0.0000000
        k(    3) = (  -0.1666667   0.1666667  -0.1666667), wk =   0.0740741
        k(    4) = (  -0.1666667  -0.8333333  -0.1666667), wk =   0.0000000
        k(    5) = (  -0.3333333   0.3333333  -0.3333333), wk =   0.0740741
        k(    6) = (  -0.3333333  -0.6666667  -0.3333333), wk =   0.0000000
        k(    7) = (   0.5000000  -0.5000000   0.5000000), wk =   0.0370370
        k(    8) = (   0.5000000  -1.5000000   0.5000000), wk =   0.0000000
        k(    9) = (   0.0000000   0.3333333   0.0000000), wk =   0.0185185
        k(   10) = (   0.0000000  -0.6666667   0.0000000), wk =   0.0000000
        k(   11) = (  -0.1666667   0.5000000  -0.1666667), wk =   0.0740741
        k(   12) = (  -0.1666667  -0.5000000  -0.1666667), wk =   0.0000000
        k(   13) = (   0.6666667  -0.3333333   0.6666667), wk =   0.0740741
        k(   14) = (   0.6666667  -1.3333333   0.6666667), wk =   0.0000000
        k(   15) = (   0.5000000  -0.1666667   0.5000000), wk =   0.0740741
        k(   16) = (   0.5000000  -1.1666667   0.5000000), wk =   0.0000000
        k(   17) = (   0.3333333   0.0000000   0.3333333), wk =   0.0370370
        k(   18) = (   0.3333333  -1.0000000   0.3333333), wk =   0.0000000
        k(   19) = (   0.0000000   0.6666667   0.0000000), wk =   0.0185185
        k(   20) = (   0.0000000  -0.3333333   0.0000000), wk =   0.0000000
        k(   21) = (   0.8333333  -0.1666667   0.8333333), wk =   0.0740741
        k(   22) = (   0.8333333  -1.1666667   0.8333333), wk =   0.0000000
        k(   23) = (   0.6666667  -0.0000000   0.6666667), wk =   0.0370370
        k(   24) = (   0.6666667  -1.0000000   0.6666667), wk =   0.0000000
        k(   25) = (   0.0000000  -1.0000000   0.0000000), wk =   0.0092593
        k(   26) = (   0.0000000  -2.0000000   0.0000000), wk =   0.0000000
        k(   27) = (   0.6666667  -0.3333333   1.0000000), wk =   0.0740741
        k(   28) = (   0.6666667  -1.3333333   1.0000000), wk =   0.0000000
        k(   29) = (   0.5000000  -0.1666667   0.8333333), wk =   0.1481481
        k(   30) = (   0.5000000  -1.1666667   0.8333333), wk =   0.0000000
        k(   31) = (  -0.3333333  -1.0000000   0.0000000), wk =   0.0370370
        k(   32) = (  -0.3333333  -2.0000000   0.0000000), wk =   0.0000000
        k(   33) = (   0.3333333   0.0000000   0.0000000), wk =   0.0370370
        k(   34) = (   0.3333333  -1.0000000   0.0000000), wk =   0.0000000
        k(   35) = (   0.5000000  -0.1666667  -0.1666667), wk =   0.1481481
        k(   36) = (   0.5000000  -1.1666667  -0.1666667), wk =   0.0000000
        k(   37) = (  -0.3333333   0.6666667   0.6666667), wk =   0.1481481
        k(   38) = (  -0.3333333  -0.3333333   0.6666667), wk =   0.0000000
        k(   39) = (  -0.1666667   0.5000000   0.5000000), wk =   0.1481481
        k(   40) = (  -0.1666667  -0.5000000   0.5000000), wk =   0.0000000
        k(   41) = (   0.0000000   0.3333333   0.3333333), wk =   0.0740741
        k(   42) = (   0.0000000  -0.6666667   0.3333333), wk =   0.0000000
        k(   43) = (   0.6666667   0.0000000   0.0000000), wk =   0.0370370
        k(   44) = (   0.6666667  -1.0000000   0.0000000), wk =   0.0000000
        k(   45) = (  -0.1666667   0.8333333   0.8333333), wk =   0.1481481
        k(   46) = (  -0.1666667  -0.1666667   0.8333333), wk =   0.0000000
        k(   47) = (  -0.0000000   0.6666667   0.6666667), wk =   0.0740741
        k(   48) = (  -0.0000000  -0.3333333   0.6666667), wk =   0.0000000
        k(   49) = (  -1.0000000   0.0000000   0.0000000), wk =   0.0185185
        k(   50) = (  -1.0000000  -1.0000000   0.0000000), wk =   0.0000000
        k(   51) = (  -0.3333333   1.0000000   0.6666667), wk =   0.0740741
        k(   52) = (  -0.3333333  -0.0000000   0.6666667), wk =   0.0000000
        k(   53) = (   1.0000000  -0.6666667   0.3333333), wk =   0.0740741
        k(   54) = (   1.0000000  -1.6666667   0.3333333), wk =   0.0000000
        k(   55) = (   0.8333333  -0.5000000   0.1666667), wk =   0.0740741
        k(   56) = (   0.8333333  -1.5000000   0.1666667), wk =   0.0000000
        k(   57) = (  -1.0000000   0.0000000  -0.3333333), wk =   0.0370370
        k(   58) = (  -1.0000000  -1.0000000  -0.3333333), wk =   0.0000000
        k(   59) = (   0.0000000   0.3333333   1.0000000), wk =   0.0370370
        k(   60) = (   0.0000000  -0.6666667   1.0000000), wk =   0.0000000

[...]

          k =-1.0000-1.0000-0.3333 (  5257 PWs)   bands (ev):

[...]

          k = 0.0000-0.6667 1.0000 (  5274 PWs)   bands (ev):

   -23.7615 -11.2842  -7.9530  -7.9115  -7.8417   0.4078   0.4424   0.5543

[...]

     17 Sym.Ops. (with q -> -q+G )

[...]

     Mode symmetry, D_4h(4/mmm) point group:

[...]

     Representation #   4 modes #   5   6

[...]

     Mode symmetry, D_4h(4/mmm) point group:

     freq (   1-   2) =         34.6  [cm-1]   --> E_u  X_5' M_5'
     freq (   3-   3) =         61.1  [cm-1]   --> A_2u X_4' M_4'
     freq (   4-   5) =         79.2  [cm-1]   --> E_u  X_5' M_5'
     freq (   6-   6) =         82.8  [cm-1]   --> A_2u X_4' M_4'

[...]

     Mode symmetry, C_s (m)     point group:

     freq (   1-   1) =         40.4  [cm-1]   --> A''
     freq (   2-   2) =         51.2  [cm-1]   --> A'
     freq (   3-   3) =         63.2  [cm-1]   --> A'
     freq (   4-   4) =         74.5  [cm-1]   --> A'
     freq (   5-   5) =         80.1  [cm-1]   --> A''
     freq (   6-   6) =         85.2  [cm-1]   --> A'

[...]

     Mode symmetry, C_2  (2)    point group:

[...]

     Mode symmetry, C_2  (2)    point group:

     freq (   1-   1) =         50.9  [cm-1]   --> A
     freq (   2-   2) =         50.9  [cm-1]   --> B
     freq (   3-   3) =         68.0  [cm-1]   --> A
     freq (   4-   4) =         68.1  [cm-1]   --> B
     freq (   5-   5) =         80.3  [cm-1]   --> A
     freq (   6-   6) =         81.0  [cm-1]   --> B

     Calculation of q =   -0.3333333  -1.0000000   0.0000000

     Title:
     phonon

     bravais-lattice index     =            2
     lattice parameter (alat)  =      13.2560  a.u.
     unit-cell volume          =     582.3356 (a.u.)^3
     number of atoms/cell      =            2
     number of atomic types    =            2
     number of electrons       =        16.00
     number of Kohn-Sham states=            8
     kinetic-energy cutoff     =      66.0000  Ry
     charge density cutoff     =     264.0000  Ry
     Exchange-correlation= PBE
                           (   1   4   3   4   0   0   0)

[...]

     atomic species   valence    mass     pseudopotential
        Rb             9.00    85.46780     Rb( 1.00)
        Br             7.00    79.90400     Br( 1.00)

     48 Sym. Ops., with inversion, found

[...]

     site n.     atom                  positions (alat units)
         1           Rb  tau(   1) = (   0.0000000   0.0000000   0.0000000  )
         2           Br  tau(   2) = (  -0.5000000   0.5000000   0.5000000  )

     number of k points=   150

     Number of k-points >= 100: set verbosity='high' to print them.

     Check: negative core charge=   -0.000002

     The potential is recalculated from file :
     ./_ph0/rbbr.q_16/rbbr.save/charge-density

     Starting wfcs are   12 atomic wfcs
     Checking if some PAW data can be deallocated...

     Band Structure Calculation
     Davidson diagonalization with overlap

     ethr =  6.25E-11,  avg # of iterations = 10.6

     End of band structure calculation

     Number of k-points >= 100: set verbosity='high' to print the bands.

     highest occupied level (ev):     0.8030

     Writing output data file ./_ph0/rbbr.q_16/rbbr.save/

     phonon

     bravais-lattice index     =            2
     lattice parameter (alat)  =      13.2560  a.u.
     unit-cell volume          =     582.3356 (a.u.)^3
     number of atoms/cell      =            2
     number of atomic types    =            2
     kinetic-energy cut-off    =      66.0000  Ry
     charge density cut-off    =     264.0000  Ry
     convergence threshold     =      1.0E-22
     beta                      =       0.7000
     number of iterations used =            4
     Exchange-correlation= PBE
                           (   1   4   3   4   0   0   0)

     celldm(1)=   13.25596  celldm(2)=    0.00000  celldm(3)=    0.00000
     celldm(4)=    0.00000  celldm(5)=    0.00000  celldm(6)=    0.00000

     crystal axes: (cart. coord. in units of alat)
               a(1) = ( -0.5000  0.0000  0.5000 )
               a(2) = (  0.0000  0.5000  0.5000 )
               a(3) = ( -0.5000  0.5000  0.0000 )

     reciprocal axes: (cart. coord. in units 2 pi/alat)
               b(1) = ( -1.0000 -1.0000  1.0000 )
               b(2) = (  1.0000  1.0000  1.0000 )
               b(3) = ( -1.0000  1.0000 -1.0000 )

     Atoms inside the unit cell:

     Cartesian axes

     site n.  atom      mass           positions (alat units)
        1     Rb  85.4678   tau(    1) = (    0.00000    0.00000    0.00000  )
        2     Br  79.9040   tau(    2) = (   -0.50000    0.50000    0.50000  )

     Computing dynamical matrix for
                    q = (  -0.3333333  -1.0000000   0.0000000 )

      4 Sym.Ops. (no q -> -q+G )

     G cutoff = 1175.0773  (  42087 G-vectors)     FFT grid: ( 50, 50, 50)
     number of k points=   150

     PseudoPot. # 1 for Rb read from file:
     /scratch1/fanchem/RbBr/pp/Rb.pbe-spn-kjpaw_psl.1.0.0.UPF
     MD5 check sum: a11e6fb9d11e64d6427b9eb26aa4a0b1
     Pseudo is Projector augmented-wave + core cor, Zval =  9.0
     Generated using "atomic" code by A. Dal Corso v.6.2.2
     Shape of augmentation charge: PSQ
     Using radial grid of 1219 points,  6 beta functions with:
                l(1) =   0
                l(2) =   0
                l(3) =   1
                l(4) =   1
                l(5) =   2
                l(6) =   2
     Q(r) pseudized with 0 coefficients

     PseudoPot. # 2 for Br read from file:
     /scratch1/fanchem/RbBr/pp/Br.pbe-n-kjpaw_psl.1.0.0.UPF
     MD5 check sum: b00de77caabc69c0a6b76eb37264f235
     Pseudo is Projector augmented-wave + core cor, Zval =  7.0
     Generated using "atomic" code by A. Dal Corso v.6.3
     Shape of augmentation charge: PSQ
     Using radial grid of 1213 points,  4 beta functions with:
                l(1) =   0
                l(2) =   0
                l(3) =   1
                l(4) =   1
     Q(r) pseudized with 0 coefficients

[...]

     Atomic displacements:
     There are    6 irreducible representations

[...]

     Representation     6      1 modes -  To be done

     Alpha used in Ewald sum =   2.6000

[...]

     Representation #   6 mode #   6

     Self-consistent Calculation

[...]

      thresh= 1.507E-12 alpha_mix =  0.700 |ddv_scf|^2 =  9.305E-24

     End of self-consistent calculation

     Convergence has been achieved

     Number of q in the star =   12
     List of q in the star:
          1  -0.333333333  -1.000000000  -0.000000000
          2   0.000000000  -1.000000000  -0.333333333
          3   0.000000000  -1.000000000   0.333333333
          4   0.333333333  -1.000000000  -0.000000000
          5  -1.000000000   0.000000000  -0.333333333
          6   1.000000000  -0.000000000   0.333333333
          7   0.000000000   0.333333333   1.000000000
          8   0.000000000  -0.333333333  -1.000000000
          9  -1.000000000  -0.333333333   0.000000000
         10   1.000000000   0.333333333   0.000000000
         11  -0.333333333   0.000000000   1.000000000
         12   0.333333333   0.000000000   1.000000000

     Diagonalizing the dynamical matrix

     q = (   -0.333333333  -1.000000000   0.000000000 )

     freq (    1) =       1.294519 [THz] =      43.180497 [cm-1]
     freq (    2) =       1.627199 [THz] =      54.277506 [cm-1]
     freq (    3) =       1.689167 [THz] =      56.344537 [cm-1]
     freq (    4) =       2.246727 [THz] =      74.942740 [cm-1]
     freq (    5) =       2.399960 [THz] =      80.054032 [cm-1]
     freq (    6) =       2.461024 [THz] =      82.090933 [cm-1]

     Mode symmetry, C_2v (mm2)  point group:

     freq (   1-   1) =         43.2  [cm-1]   --> B_1  D_3  S_3
     freq (   2-   2) =         54.3  [cm-1]   --> A_1  D_1  S_1
     freq (   3-   3) =         56.3  [cm-1]   --> B_2  D_4  S_4
     freq (   4-   4) =         74.9  [cm-1]   --> A_1  D_1  S_1
     freq (   5-   5) =         80.1  [cm-1]   --> B_1  D_3  S_3
     freq (   6-   6) =         82.1  [cm-1]   --> B_2  D_4  S_4

     General routines

     Parallel routines

     INITIALIZATION:

     DYNAMICAL MATRIX:

      General routines

   This run was terminated on:   0: 9:45  21Mar2022

   JOB DONE.