     Program PHONON v.6.6 starts on 22Mar2022 at  0:40:50

     K-points division:     npool     =       2
     R & G space division:  proc/nbgrp/npool/nimage =      24
     Fft bands division:     nmany     =       1

     Reading xml data from directory:

     ./mose2.save/
     file Mo.pbesol-spn-kjpaw_psl.1.0.0.UPF: wavefunction(s)  4S 4D renormalized
     file Se.pbesol-dn-kjpaw_psl.1.0.0.UPF: wavefunction(s)  4S 4P 3D renormalized

     IMPORTANT: XC functional enforced from input :
     Exchange-correlation= PBESOL
                           (   1   4  10   8   0   0   0)
     Any further DFT definition will be discarded
     Please, verify this is what you really want

     negative rho (up, down):  1.202E-04 0.000E+00
     Reading collected, re-writing distributed wavefunctions

     Dynamical matrices for ( 8, 8, 1)  uniform grid of q-points
     (  10 q-points):
       N         xq(1)         xq(2)         xq(3)
       1   0.000000000   0.000000000   0.000000000
       2   0.000000000   0.144337567   0.000000000
       3   0.000000000   0.288675135   0.000000000
       4   0.000000000   0.433012702   0.000000000
       5   0.000000000  -0.577350269   0.000000000
       6   0.125000000   0.216506351   0.000000000
       7   0.125000000   0.360843918   0.000000000
       8   0.125000000   0.505181486   0.000000000
       9   0.250000000   0.433012702   0.000000000
      10   0.250000000   0.577350269   0.000000000

     Saving dvscf to file. Distribute only q points, not irreducible represetations.

     Calculation of q =    0.0000000   0.0000000   0.0000000

     phonon

     bravais-lattice index     =            4
     lattice parameter (alat)  =       6.1734  a.u.
     unit-cell volume          =    1646.5987 (a.u.)^3
     number of atoms/cell      =            3
     number of atomic types    =            2
     kinetic-energy cut-off    =     102.0000  Ry
     charge density cut-off    =     408.0000  Ry
     convergence threshold     =      1.0E-22
     beta                      =       0.7000
     number of iterations used =            4
     Exchange-correlation= PBESOL
                           (   1   4  10   8   0   0   0)

     celldm(1)=    6.17344  celldm(2)=    0.00000  celldm(3)=    8.08120
     celldm(4)=    0.00000  celldm(5)=    0.00000  celldm(6)=    0.00000

     crystal axes: (cart. coord. in units of alat)
               a(1) = (  1.0000  0.0000  0.0000 )
               a(2) = ( -0.5000  0.8660  0.0000 )
               a(3) = (  0.0000  0.0000  8.0812 )

     reciprocal axes: (cart. coord. in units 2 pi/alat)
               b(1) = (  1.0000  0.5774  0.0000 )
               b(2) = (  0.0000  1.1547  0.0000 )
               b(3) = (  0.0000  0.0000  0.1237 )

     Atoms inside the unit cell:

     Cartesian axes

     site n.  atom      mass           positions (alat units)
        1     Mo  95.9500   tau(    1) = (   -0.00000    0.57735    4.04060  )
        2     Se  78.9600   tau(    2) = (    0.50000    0.28868    3.53099  )
        3     Se  78.9600   tau(    3) = (    0.50000    0.28868    4.55022  )

     Computing dynamical matrix for
                    q = (   0.0000000   0.0000000   0.0000000 )

     13 Sym.Ops. (with q -> -q+G )

     G cutoff =  393.8715  (   9544 G-vectors)     FFT grid: ( 40, 40,324)
     number of k points=    14

     PseudoPot. # 1 for Mo read from file:
     /scratch1/fanchem/MoSe2/pp/Mo.pbesol-spn-kjpaw_psl.1.0.0.UPF
     MD5 check sum: 2f69e612011640a3284f00f973390535
     Pseudo is Projector augmented-wave + core cor, Zval = 14.0
     Generated using "atomic" code by A. Dal Corso v.6.3
     Shape of augmentation charge: PSQ
     Using radial grid of 1229 points,  6 beta functions with:
                l(1) =   0
                l(2) =   0
                l(3) =   1
                l(4) =   1
                l(5) =   2
                l(6) =   2
     Q(r) pseudized with 0 coefficients

     PseudoPot. # 2 for Se read from file:
     /scratch1/fanchem/MoSe2/pp/Se.pbesol-dn-kjpaw_psl.1.0.0.UPF
     MD5 check sum: 96421e4d850e5e17b279567c6a17bf72
     Pseudo is Projector augmented-wave + core cor, Zval = 16.0
     Generated using "atomic" code by A. Dal Corso v.6.3
     Shape of augmentation charge: PSQ
     Using radial grid of 1211 points,  6 beta functions with:
                l(1) =   0
                l(2) =   0
                l(3) =   1
                l(4) =   1
                l(5) =   2
                l(6) =   2
     Q(r) pseudized with 0 coefficients

     Mode symmetry, D_3h (-62m) point group:

     Electric field:
     Dielectric constant
     Born effective charges in two ways

     Atomic displacements:
     There are    6 irreducible representations

     Representation     1      1 modes -  To be done

[...]

     Alpha used in Ewald sum =   2.8000

     negative rho (up, down):  1.202E-04 0.000E+00

     Electric Fields Calculation

      thresh= 1.000E-02 alpha_mix =  0.700 |ddv_scf|^2 =  6.006E-04

[...]

     End of electric fields calculation

          Dielectric constant in cartesian axis

          (       4.717663936      -0.000000000       0.000000000 )
          (      -0.000000000       4.717663936       0.000000000 )
          (       0.000000000       0.000000000       1.267828166 )

          Effective charges (d Force / dE) in cartesian axis

           atom      1   Mo
      Ex  (       -1.87107       -0.00000       -0.00000 )
      Ey  (       -0.00000       -1.87107       -0.00000 )
      Ez  (        0.00000        0.00000       -0.13878 )
           atom      2   Se
      Ex  (        0.93466        0.00000        0.00000 )
      Ey  (        0.00000        0.93466       -0.00000 )
      Ez  (        0.00000       -0.00000        0.06686 )
           atom      3   Se
      Ex  (        0.93466       -0.00000       -0.00000 )
      Ey  (        0.00000        0.93466       -0.00000 )
      Ez  (        0.00000        0.00000        0.06686 )

     Representation #   1 mode #   1

     Self-consistent Calculation

[...]

     End of self-consistent calculation

     Convergence has been achieved

     Representation #   2 modes #   2   3

[...]

     Representation #   6 modes #   8   9

[...]

     Number of q in the star =    1
     List of q in the star:
          1   0.000000000   0.000000000   0.000000000

          Dielectric constant in cartesian axis

          (       4.717663936      -0.000000000       0.000000000 )
          (      -0.000000000       4.717663936       0.000000000 )
          (       0.000000000       0.000000000       1.267828166 )

          Effective charges (d Force / dE) in cartesian axis

[...]

          Effective charges (d P / du) in cartesian axis

           atom      1   Mo
      Px  (       -1.87105        0.00000        0.00000 )
      Py  (        0.00000       -1.87105        0.00000 )
      Pz  (        0.00000        0.00000       -0.13877 )
           atom      2   Se
      Px  (        0.93464       -0.00000       -0.00000 )
      Py  (       -0.00000        0.93464       -0.00000 )
      Pz  (        0.00000        0.00000        0.06685 )
           atom      3   Se
      Px  (        0.93464       -0.00000        0.00000 )
      Py  (       -0.00000        0.93464        0.00000 )
      Pz  (       -0.00000       -0.00000        0.06685 )

     Diagonalizing the dynamical matrix

     q = (    0.000000000   0.000000000   0.000000000 )

     freq (    1) =      -0.108867 [THz] =      -3.631397 [cm-1]
     freq (    2) =      -0.056172 [THz] =      -1.873708 [cm-1]
     freq (    3) =      -0.056172 [THz] =      -1.873708 [cm-1]
     freq (    4) =       5.041717 [THz] =     168.173591 [cm-1]
     freq (    5) =       5.041717 [THz] =     168.173591 [cm-1]
     freq (    6) =       7.249473 [THz] =     241.816384 [cm-1]
     freq (    7) =       8.627718 [THz] =     287.789682 [cm-1]
     freq (    8) =       8.627718 [THz] =     287.789682 [cm-1]
     freq (    9) =      10.660879 [THz] =     355.608647 [cm-1]

     Mode symmetry, D_3h (-62m) point group:

     freq (   1-   1) =         -3.6  [cm-1]   --> A''2            I
     freq (   2-   3) =         -1.9  [cm-1]   --> E'              I+R
     freq (   4-   5) =        168.2  [cm-1]   --> E''             R
     freq (   6-   6) =        241.8  [cm-1]   --> A'_1            R
     freq (   7-   8) =        287.8  [cm-1]   --> E'              I+R
     freq (   9-   9) =        355.6  [cm-1]   --> A''2            I

[...]

     Title:
     phonon

     bravais-lattice index     =            4
     lattice parameter (alat)  =       6.1734  a.u.
     unit-cell volume          =    1646.5987 (a.u.)^3
     number of atoms/cell      =            3
     number of atomic types    =            2
     number of electrons       =        46.00
     number of Kohn-Sham states=           23
     kinetic-energy cutoff     =     102.0000  Ry
     charge density cutoff     =     408.0000  Ry
     Exchange-correlation= PBESOL
                           (   1   4  10   8   0   0   0)

[...]

     atomic species   valence    mass     pseudopotential
        Mo            14.00    95.95000     Mo( 1.00)
        Se            16.00    78.96000     Se( 1.00)

     12 Sym. Ops. (no inversion) found

[...]

     site n.     atom                  positions (alat units)
         1           Mo  tau(   1) = (  -0.0000000   0.5773503   4.0406015  )
         2           Se  tau(   2) = (   0.5000000   0.2886751   3.5309875  )
         3           Se  tau(   3) = (   0.5000000   0.2886751   4.5502155  )

     number of k points=   110

     Number of k-points >= 100: set verbosity='high' to print them.

     The potential is recalculated from file :
     ./_ph0/mose2.q_2/mose2.save/charge-density

     negative rho (up, down):  1.202E-04 0.000E+00
     Starting wfcs are   28 atomic wfcs
     Checking if some PAW data can be deallocated...

     Band Structure Calculation
     Davidson diagonalization with overlap

     ethr =  2.17E-11,  avg # of iterations = 15.1

     End of band structure calculation

     Number of k-points >= 100: set verbosity='high' to print the bands.

     highest occupied level (ev):    -1.2496

     Writing output data file ./_ph0/mose2.q_2/mose2.save/

[...]

      4 Sym.Ops. (no q -> -q+G )

[...]

     Mode symmetry, C_2v (mm2)  point group:

[...]

     Number of q in the star =    3
     List of q in the star:
          1   0.000000000   0.144337567   0.000000000
          2  -0.125000000  -0.072168784   0.000000000
          3   0.125000000  -0.072168784   0.000000000
     In addition there is the -q list:
          1   0.000000000  -0.144337567   0.000000000
          2   0.125000000   0.072168784   0.000000000
          3  -0.125000000   0.072168784   0.000000000

[...]

     freq (   1-   1) =         21.0  [cm-1]   --> B_2  D_4  S_4
     freq (   2-   2) =         45.7  [cm-1]   --> B_1  D_3  S_3
     freq (   3-   3) =         72.8  [cm-1]   --> A_1  D_1  S_1
     freq (   4-   4) =        171.0  [cm-1]   --> A_2  D_2  S_2
     freq (   5-   5) =        180.1  [cm-1]   --> B_2  D_4  S_4
     freq (   6-   6) =        235.4  [cm-1]   --> A_1  D_1  S_1
     freq (   7-   7) =        288.5  [cm-1]   --> B_1  D_3  S_3
     freq (   8-   8) =        294.0  [cm-1]   --> A_1  D_1  S_1
     freq (   9-   9) =        347.9  [cm-1]   --> B_2  D_4  S_4

[...]

     number of k points=    62
                       cart. coord. in units 2pi/alat
        k(    1) = (   0.0000000   0.0000000   0.0000000), wk =   0.0200000
        k(    2) = (   0.0000000  -0.5773503   0.0000000), wk =   0.0000000
        k(    3) = (   0.0000000   0.1154701   0.0000000), wk =   0.0400000
        k(    4) = (   0.0000000  -0.4618802   0.0000000), wk =   0.0000000
        k(    5) = (   0.0000000   0.2309401   0.0000000), wk =   0.0400000
        k(    6) = (   0.0000000  -0.3464102   0.0000000), wk =   0.0000000
        k(    7) = (   0.0000000   0.3464102   0.0000000), wk =   0.0400000
        k(    8) = (   0.0000000  -0.2309401   0.0000000), wk =   0.0000000
        k(    9) = (   0.0000000   0.4618802   0.0000000), wk =   0.0400000
        k(   10) = (   0.0000000  -0.1154701   0.0000000), wk =   0.0000000
        k(   11) = (   0.0000000  -0.5773503   0.0000000), wk =   0.0200000
        k(   12) = (   0.0000000  -1.1547005   0.0000000), wk =   0.0000000
        k(   13) = (   0.1000000   0.1732051   0.0000000), wk =   0.0800000
        k(   14) = (   0.1000000  -0.4041452   0.0000000), wk =   0.0000000
        k(   15) = (   0.1000000   0.2886751   0.0000000), wk =   0.0800000
        k(   16) = (   0.1000000  -0.2886751   0.0000000), wk =   0.0000000
        k(   17) = (   0.1000000   0.4041452   0.0000000), wk =   0.0800000
        k(   18) = (   0.1000000  -0.1732051   0.0000000), wk =   0.0000000
        k(   19) = (   0.1000000   0.5196152   0.0000000), wk =   0.0800000
        k(   20) = (   0.1000000  -0.0577350   0.0000000), wk =   0.0000000
        k(   21) = (   0.2000000   0.3464102   0.0000000), wk =   0.0800000
        k(   22) = (   0.2000000  -0.2309401   0.0000000), wk =   0.0000000
        k(   23) = (   0.2000000   0.4618802   0.0000000), wk =   0.0800000
        k(   24) = (   0.2000000  -0.1154701   0.0000000), wk =   0.0000000
        k(   25) = (   0.2000000   0.5773503   0.0000000), wk =   0.0400000
        k(   26) = (   0.2000000   0.0000000   0.0000000), wk =   0.0000000
        k(   27) = (   0.3000000   0.5196152   0.0000000), wk =   0.0800000
        k(   28) = (   0.3000000  -0.0577350   0.0000000), wk =   0.0000000
        k(   29) = (  -0.1000000  -0.0577350   0.0000000), wk =   0.0800000
        k(   30) = (  -0.1000000  -0.6350853   0.0000000), wk =   0.0000000
        k(   31) = (  -0.2000000  -0.1154701   0.0000000), wk =   0.0800000
        k(   32) = (  -0.2000000  -0.6928203   0.0000000), wk =   0.0000000
        k(   33) = (  -0.3000000  -0.1732051   0.0000000), wk =   0.0800000
        k(   34) = (  -0.3000000  -0.7505553   0.0000000), wk =   0.0000000
        k(   35) = (  -0.4000000  -0.2309401   0.0000000), wk =   0.0800000
        k(   36) = (  -0.4000000  -0.8082904   0.0000000), wk =   0.0000000
        k(   37) = (   0.5000000   0.2886751   0.0000000), wk =   0.0400000
        k(   38) = (   0.5000000  -0.2886751   0.0000000), wk =   0.0000000
        k(   39) = (   0.2000000  -0.0000000   0.0000000), wk =   0.0400000
        k(   40) = (   0.2000000  -0.5773503   0.0000000), wk =   0.0000000
        k(   41) = (  -0.2000000  -0.2309401   0.0000000), wk =   0.0800000
        k(   42) = (  -0.2000000  -0.8082904   0.0000000), wk =   0.0000000
        k(   43) = (   0.3000000  -0.0577350   0.0000000), wk =   0.0800000
        k(   44) = (   0.3000000  -0.6350853   0.0000000), wk =   0.0000000
        k(   45) = (  -0.3000000  -0.2886751   0.0000000), wk =   0.0800000
        k(   46) = (  -0.3000000  -0.8660254   0.0000000), wk =   0.0000000
        k(   47) = (   0.4000000  -0.1154701   0.0000000), wk =   0.0800000
        k(   48) = (   0.4000000  -0.6928203   0.0000000), wk =   0.0000000
        k(   49) = (  -0.4000000  -0.3464102   0.0000000), wk =   0.0800000
        k(   50) = (  -0.4000000  -0.9237604   0.0000000), wk =   0.0000000
        k(   51) = (   0.5000000  -0.1732051   0.0000000), wk =   0.0800000
        k(   52) = (   0.5000000  -0.7505553   0.0000000), wk =   0.0000000
        k(   53) = (   0.4000000  -0.0000000   0.0000000), wk =   0.0400000
        k(   54) = (   0.4000000  -0.5773503   0.0000000), wk =   0.0000000
        k(   55) = (  -0.3000000  -0.4041452   0.0000000), wk =   0.0800000
        k(   56) = (  -0.3000000  -0.9814955   0.0000000), wk =   0.0000000
        k(   57) = (   0.5000000  -0.0577350   0.0000000), wk =   0.0800000
        k(   58) = (   0.5000000  -0.6350853   0.0000000), wk =   0.0000000
        k(   59) = (  -0.4000000  -0.4618802   0.0000000), wk =   0.0800000
        k(   60) = (  -0.4000000  -1.0392305   0.0000000), wk =   0.0000000
        k(   61) = (   0.6000000   0.0000000   0.0000000), wk =   0.0400000
        k(   62) = (   0.6000000  -0.5773503   0.0000000), wk =   0.0000000

[...]

          k = 0.0000 0.0000 0.0000 ( 28541 PWs)   bands (ev):

   -61.8617 -48.5575 -48.5575 -48.5572 -48.5572 -48.5157 -48.5157 -48.5147
   -48.5147 -48.4993 -48.4971 -36.0684 -35.8485 -35.8485 -15.5322 -14.4888
    -6.7210  -3.2940  -3.2940  -3.1013  -2.2648  -2.2648  -1.5094

[...]

          k =-0.1000-0.0577 0.0000 ( 28517 PWs)   bands (ev):

[...]

          k =-0.4000-1.0392 0.0000 ( 28649 PWs)   bands (ev):

[...]

          k = 0.6000-0.5774 0.0000 ( 28698 PWs)   bands (ev):

   -61.8408 -48.5570 -48.5564 -48.5542 -48.5540 -48.5167 -48.5165 -48.5156
   -48.5153 -48.4975 -48.4951 -36.0547 -36.0166 -35.9280 -14.1338 -13.7273
    -5.9950  -5.1957  -4.8835  -4.3665  -3.2874  -2.3931  -1.7951

[...]

      5 Sym.Ops. (with q -> -q+G )

[...]

     Mode symmetry, C_2v (mm2)  point group:

     freq (   1-   1) =        107.7  [cm-1]   --> B_1  D_3  S_3
     freq (   2-   2) =        132.1  [cm-1]   --> B_2  D_4  S_4
     freq (   3-   3) =        158.4  [cm-1]   --> A_1  D_1  S_1
     freq (   4-   4) =        183.1  [cm-1]   --> A_2  D_2  S_2
     freq (   5-   5) =        205.3  [cm-1]   --> B_2  D_4  S_4
     freq (   6-   6) =        217.9  [cm-1]   --> A_1  D_1  S_1
     freq (   7-   7) =        284.0  [cm-1]   --> B_1  D_3  S_3
     freq (   8-   8) =        299.3  [cm-1]   --> A_1  D_1  S_1
     freq (   9-   9) =        302.3  [cm-1]   --> B_2  D_4  S_4

[...]

     Mode symmetry, C_s (m)     point group:

[...]

     freq (   1-   1) =         52.8  [cm-1]   --> A''
     freq (   2-   2) =         79.2  [cm-1]   --> A'
     freq (   3-   3) =        112.4  [cm-1]   --> A'
     freq (   4-   4) =        176.2  [cm-1]   --> A''
     freq (   5-   5) =        193.6  [cm-1]   --> A''
     freq (   6-   6) =        225.1  [cm-1]   --> A'
     freq (   7-   7) =        289.3  [cm-1]   --> A'
     freq (   8-   8) =        295.7  [cm-1]   --> A'
     freq (   9-   9) =        335.2  [cm-1]   --> A''

[...]

     Number of q in the star =    6
     List of q in the star:
          1   0.125000000   0.505181486   0.000000000
          2  -0.125000000   0.505181486   0.000000000
          3  -0.375000000  -0.360843918   0.000000000
          4   0.500000000  -0.144337567   0.000000000
          5  -0.500000000  -0.144337567   0.000000000
          6   0.375000000  -0.360843918   0.000000000
     In addition there is the -q list:
          1  -0.125000000  -0.505181486   0.000000000
          2   0.125000000  -0.505181486   0.000000000
          3   0.375000000   0.360843918   0.000000000
          4  -0.500000000   0.144337567   0.000000000
          5   0.500000000   0.144337567   0.000000000
          6  -0.375000000   0.360843918   0.000000000

[...]

     freq (   1-   1) =        118.9  [cm-1]   --> A'
     freq (   2-   2) =        126.1  [cm-1]   --> A''
     freq (   3-   3) =        151.2  [cm-1]   --> A'
     freq (   4-   4) =        189.2  [cm-1]   --> A''
     freq (   5-   5) =        204.8  [cm-1]   --> A''
     freq (   6-   6) =        214.0  [cm-1]   --> A'
     freq (   7-   7) =        284.5  [cm-1]   --> A'
     freq (   8-   8) =        300.5  [cm-1]   --> A'
     freq (   9-   9) =        302.5  [cm-1]   --> A''

[...]

     freq (   1-   1) =        120.7  [cm-1]   --> A''
     freq (   2-   2) =        130.2  [cm-1]   --> A'
     freq (   3-   3) =        143.5  [cm-1]   --> A'
     freq (   4-   4) =        194.6  [cm-1]   --> A''
     freq (   5-   5) =        204.3  [cm-1]   --> A''
     freq (   6-   6) =        209.7  [cm-1]   --> A'
     freq (   7-   7) =        284.5  [cm-1]   --> A'
     freq (   8-   8) =        301.9  [cm-1]   --> A'
     freq (   9-   9) =        302.7  [cm-1]   --> A''

     Calculation of q =    0.2500000   0.5773503   0.0000000

     Title:
     phonon

     bravais-lattice index     =            4
     lattice parameter (alat)  =       6.1734  a.u.
     unit-cell volume          =    1646.5987 (a.u.)^3
     number of atoms/cell      =            3
     number of atomic types    =            2
     number of electrons       =        46.00
     number of Kohn-Sham states=           23
     kinetic-energy cutoff     =     102.0000  Ry
     charge density cutoff     =     408.0000  Ry
     Exchange-correlation= PBESOL
                           (   1   4  10   8   0   0   0)

[...]

     atomic species   valence    mass     pseudopotential
        Mo            14.00    95.95000     Mo( 1.00)
        Se            16.00    78.96000     Se( 1.00)

     12 Sym. Ops. (no inversion) found

[...]

     site n.     atom                  positions (alat units)
         1           Mo  tau(   1) = (  -0.0000000   0.5773503   4.0406015  )
         2           Se  tau(   2) = (   0.5000000   0.2886751   3.5309875  )
         3           Se  tau(   3) = (   0.5000000   0.2886751   4.5502155  )

     number of k points=   200

     Number of k-points >= 100: set verbosity='high' to print them.

     The potential is recalculated from file :
     ./_ph0/mose2.q_10/mose2.save/charge-density

     negative rho (up, down):  1.202E-04 0.000E+00
     Starting wfcs are   28 atomic wfcs
     Checking if some PAW data can be deallocated...

     Band Structure Calculation
     Davidson diagonalization with overlap

     ethr =  2.17E-11,  avg # of iterations = 15.2

     End of band structure calculation

     Number of k-points >= 100: set verbosity='high' to print the bands.

     highest occupied level (ev):    -1.2496

     Writing output data file ./_ph0/mose2.q_10/mose2.save/

     phonon

     bravais-lattice index     =            4
     lattice parameter (alat)  =       6.1734  a.u.
     unit-cell volume          =    1646.5987 (a.u.)^3
     number of atoms/cell      =            3
     number of atomic types    =            2
     kinetic-energy cut-off    =     102.0000  Ry
     charge density cut-off    =     408.0000  Ry
     convergence threshold     =      1.0E-22
     beta                      =       0.7000
     number of iterations used =            4
     Exchange-correlation= PBESOL
                           (   1   4  10   8   0   0   0)

     celldm(1)=    6.17344  celldm(2)=    0.00000  celldm(3)=    8.08120
     celldm(4)=    0.00000  celldm(5)=    0.00000  celldm(6)=    0.00000

     crystal axes: (cart. coord. in units of alat)
               a(1) = (  1.0000  0.0000  0.0000 )
               a(2) = ( -0.5000  0.8660  0.0000 )
               a(3) = (  0.0000  0.0000  8.0812 )

     reciprocal axes: (cart. coord. in units 2 pi/alat)
               b(1) = (  1.0000  0.5774  0.0000 )
               b(2) = (  0.0000  1.1547  0.0000 )
               b(3) = (  0.0000  0.0000  0.1237 )

     Atoms inside the unit cell:

     Cartesian axes

     site n.  atom      mass           positions (alat units)
        1     Mo  95.9500   tau(    1) = (   -0.00000    0.57735    4.04060  )
        2     Se  78.9600   tau(    2) = (    0.50000    0.28868    3.53099  )
        3     Se  78.9600   tau(    3) = (    0.50000    0.28868    4.55022  )

     Computing dynamical matrix for
                    q = (   0.2500000   0.5773503   0.0000000 )

      2 Sym.Ops. (no q -> -q+G )

     G cutoff =  393.8715  (   9544 G-vectors)     FFT grid: ( 40, 40,324)
     number of k points=   200

     PseudoPot. # 1 for Mo read from file:
     /scratch1/fanchem/MoSe2/pp/Mo.pbesol-spn-kjpaw_psl.1.0.0.UPF
     MD5 check sum: 2f69e612011640a3284f00f973390535
     Pseudo is Projector augmented-wave + core cor, Zval = 14.0
     Generated using "atomic" code by A. Dal Corso v.6.3
     Shape of augmentation charge: PSQ
     Using radial grid of 1229 points,  6 beta functions with:
                l(1) =   0
                l(2) =   0
                l(3) =   1
                l(4) =   1
                l(5) =   2
                l(6) =   2
     Q(r) pseudized with 0 coefficients

     PseudoPot. # 2 for Se read from file:
     /scratch1/fanchem/MoSe2/pp/Se.pbesol-dn-kjpaw_psl.1.0.0.UPF
     MD5 check sum: 96421e4d850e5e17b279567c6a17bf72
     Pseudo is Projector augmented-wave + core cor, Zval = 16.0
     Generated using "atomic" code by A. Dal Corso v.6.3
     Shape of augmentation charge: PSQ
     Using radial grid of 1211 points,  6 beta functions with:
                l(1) =   0
                l(2) =   0
                l(3) =   1
                l(4) =   1
                l(5) =   2
                l(6) =   2
     Q(r) pseudized with 0 coefficients

[...]

     Atomic displacements:
     There are    9 irreducible representations

[...]

     Representation     9      1 modes -  To be done

     Alpha used in Ewald sum =   2.8000

     negative rho (up, down):  1.202E-04 0.000E+00

[...]

     Representation #   9 mode #   9

     Self-consistent Calculation

[...]

      thresh= 1.267E-12 alpha_mix =  0.700 |ddv_scf|^2 =  1.555E-23

     End of self-consistent calculation

     Convergence has been achieved

     Number of q in the star =    6
     List of q in the star:
          1   0.250000000   0.577350269   0.000000000
          2  -0.250000000   0.577350269   0.000000000
          3  -0.375000000  -0.505181486   0.000000000
          4   0.625000000  -0.072168784   0.000000000
          5  -0.625000000  -0.072168784   0.000000000
          6   0.375000000  -0.505181486   0.000000000

     Diagonalizing the dynamical matrix

     q = (    0.250000000   0.577350269   0.000000000 )

     freq (    1) =       3.752077 [THz] =     125.155819 [cm-1]
     freq (    2) =       3.990008 [THz] =     133.092338 [cm-1]
     freq (    3) =       4.631129 [THz] =     154.477846 [cm-1]
     freq (    4) =       5.971097 [THz] =     199.174359 [cm-1]
     freq (    5) =       6.045770 [THz] =     201.665195 [cm-1]
     freq (    6) =       6.196942 [THz] =     206.707726 [cm-1]
     freq (    7) =       8.445416 [THz] =     281.708764 [cm-1]
     freq (    8) =       8.923725 [THz] =     297.663435 [cm-1]
     freq (    9) =       9.135912 [THz] =     304.741237 [cm-1]

     Mode symmetry, C_s (m)     point group:

     freq (   1-   1) =        125.2  [cm-1]   --> A'
     freq (   2-   2) =        133.1  [cm-1]   --> A''
     freq (   3-   3) =        154.5  [cm-1]   --> A'
     freq (   4-   4) =        199.2  [cm-1]   --> A''
     freq (   5-   5) =        201.7  [cm-1]   --> A''
     freq (   6-   6) =        206.7  [cm-1]   --> A'
     freq (   7-   7) =        281.7  [cm-1]   --> A'
     freq (   8-   8) =        297.7  [cm-1]   --> A''
     freq (   9-   9) =        304.7  [cm-1]   --> A'

     General routines

     Parallel routines

     INITIALIZATION:

     DYNAMICAL MATRIX:

      General routines

   This run was terminated on:   8:37:12  22Mar2022

   JOB DONE.