     Program PHONON v.6.5 starts on  4Feb2022 at 14: 0:32

     K-points division:     npool     =     128

     Reading xml data from directory:

     ./temp/Ge.save/

     IMPORTANT: XC functional enforced from input :
     Exchange-correlation= PBESOL
                           (   1   4  10   8   0   0   0)
     Any further DFT definition will be discarded
     Please, verify this is what you really want

     Reading collected, re-writing distributed wavefunctions

     Dynamical matrices for ( 6, 6, 6)  uniform grid of q-points
     (  16 q-points):
       N         xq(1)         xq(2)         xq(3)
       1   0.000000000   0.000000000   0.000000000
       2  -0.166666667   0.166666667  -0.166666667
       3  -0.333333333   0.333333333  -0.333333333
       4   0.500000000  -0.500000000   0.500000000
       5   0.000000000   0.333333333   0.000000000
       6  -0.166666667   0.500000000  -0.166666667
       7   0.666666667  -0.333333333   0.666666667
       8   0.500000000  -0.166666667   0.500000000
       9   0.333333333   0.000000000   0.333333333
      10   0.000000000   0.666666667   0.000000000
      11   0.833333333  -0.166666667   0.833333333
      12   0.666666667  -0.000000000   0.666666667
      13   0.000000000  -1.000000000   0.000000000
      14   0.666666667  -0.333333333   1.000000000
      15   0.500000000  -0.166666667   0.833333333
      16  -0.333333333  -1.000000000   0.000000000

     Calculation of q =    0.0000000   0.0000000   0.0000000

     Phonons of Ge

     bravais-lattice index     =            2
     lattice parameter (alat)  =      10.7450  a.u.
     unit-cell volume          =     310.1411 (a.u.)^3
     number of atoms/cell      =            2
     number of atomic types    =            1
     kinetic-energy cut-off    =      50.0000  Ry
     charge density cut-off    =     200.0000  Ry
     convergence threshold     =      1.0E-14
     beta                      =       0.7000
     number of iterations used =            4
     Exchange-correlation= PBESOL
                           (   1   4  10   8   0   0   0)

     celldm(1)=   10.74500  celldm(2)=    0.00000  celldm(3)=    0.00000
     celldm(4)=    0.00000  celldm(5)=    0.00000  celldm(6)=    0.00000

     crystal axes: (cart. coord. in units of alat)
               a(1) = ( -0.5000  0.0000  0.5000 )
               a(2) = (  0.0000  0.5000  0.5000 )
               a(3) = ( -0.5000  0.5000  0.0000 )

     reciprocal axes: (cart. coord. in units 2 pi/alat)
               b(1) = ( -1.0000 -1.0000  1.0000 )
               b(2) = (  1.0000  1.0000  1.0000 )
               b(3) = ( -1.0000  1.0000 -1.0000 )

     Atoms inside the unit cell:

     Cartesian axes

     site n.  atom      mass           positions (alat units)
        1     Ge  72.6400   tau(    1) = (    0.00000    0.00000    0.00000  )
        2     Ge  72.6400   tau(    2) = (   -0.25000    0.25000    0.25000  )

     Computing dynamical matrix for
                    q = (   0.0000000   0.0000000   0.0000000 )

     49 Sym.Ops. (with q -> -q+G )

     G cutoff =  584.9020  (  14841 G-vectors)     FFT grid: ( 36, 36, 36)
     number of k points=   570

     PseudoPot. # 1 for Ge read from file:
     ./Ge.pbesol-n-kjpaw_psl.1.0.0.UPF
     MD5 check sum: ba6169c2b85c6e6c9360c21392c70c8c
     Pseudo is Projector augmented-wave + core cor, Zval =  4.0
     Generated using "atomic" code by A. Dal Corso v.6.3
     Shape of augmentation charge: PSQ
     Using radial grid of 1207 points,  4 beta functions with:
                l(1) =   0
                l(2) =   0
                l(3) =   1
                l(4) =   1
     Q(r) pseudized with 0 coefficients

     Mode symmetry, O_h (m-3m)  point group:

     Electric field:
     Dielectric constant
     Born effective charges in two ways

     Atomic displacements:
     There are   2 irreducible representations

     Representation     1      3 modes -T_2g G_25' G_5+  To be done

     Representation     2      3 modes -T_1u G_15  G_4-  To be done

     Alpha used in Ewald sum =   2.1000

     Electric Fields Calculation

      thresh= 1.000E-02 alpha_mix =  0.700 |ddv_scf|^2 =  1.251E-07

[...]

     End of electric fields calculation

          Dielectric constant in cartesian axis

          (      22.556517721      -0.000000000       0.000000000 )
          (      -0.000000000      22.556517721       0.000000000 )
          (       0.000000000       0.000000000      22.556517721 )

          Effective charges (d Force / dE) in cartesian axis

           atom      1   Ge
      Ex  (       -0.00015        0.00000        0.00000 )
      Ey  (        0.00000       -0.00015       -0.00000 )
      Ez  (        0.00000       -0.00000       -0.00015 )
           atom      2   Ge
      Ex  (       -0.00015        0.00000       -0.00000 )
      Ey  (        0.00000       -0.00015       -0.00000 )
      Ez  (       -0.00000       -0.00000       -0.00015 )

     Representation #  1 modes #   1  2  3

     Self-consistent Calculation

[...]

     End of self-consistent calculation

     Convergence has been achieved

[...]

     Number of q in the star =    1
     List of q in the star:
          1   0.000000000   0.000000000   0.000000000

          Dielectric constant in cartesian axis

          (      22.556517721      -0.000000000       0.000000000 )
          (      -0.000000000      22.556517721       0.000000000 )
          (       0.000000000       0.000000000      22.556517721 )

          Effective charges (d Force / dE) in cartesian axis

[...]

          Effective charges (d P / du) in cartesian axis

           atom      1   Ge
      Px  (       -0.00039       -0.00000        0.00000 )
      Py  (       -0.00000       -0.00039        0.00000 )
      Pz  (        0.00000        0.00000       -0.00039 )
           atom      2   Ge
      Px  (       -0.00039       -0.00000        0.00000 )
      Py  (       -0.00000       -0.00039        0.00000 )
      Pz  (       -0.00000        0.00000       -0.00039 )

     Diagonalizing the dynamical matrix

     q = (    0.000000000   0.000000000   0.000000000 )

     freq (    1) =      -0.123244 [THz] =      -4.110993 [cm-1]
     freq (    2) =      -0.123244 [THz] =      -4.110993 [cm-1]
     freq (    3) =      -0.123244 [THz] =      -4.110993 [cm-1]
     freq (    4) =       8.773799 [THz] =     292.662446 [cm-1]
     freq (    5) =       8.773799 [THz] =     292.662446 [cm-1]
     freq (    6) =       8.773799 [THz] =     292.662446 [cm-1]

     Mode symmetry, O_h (m-3m)  point group:

     freq (  1 -  3) =         -4.1  [cm-1]   --> T_1u G_15  G_4- I
     freq (  4 -  6) =        292.7  [cm-1]   --> T_2g G_25' G_5+ R

[...]

     Subspace diagonalization in iterative solution of the eigenvalue problem:
     a serial algorithm will be used

     Title:
     Phonons of Ge

     bravais-lattice index     =            2
     lattice parameter (alat)  =      10.7450  a.u.
     unit-cell volume          =     310.1411 (a.u.)^3
     number of atoms/cell      =            2
     number of atomic types    =            1
     number of electrons       =         8.00
     number of Kohn-Sham states=           30
     kinetic-energy cutoff     =      50.0000  Ry
     charge density cutoff     =     200.0000  Ry
     Exchange-correlation= PBESOL
                           (   1   4  10   8   0   0   0)

[...]

     atomic species   valence    mass     pseudopotential
        Ge             4.00    72.64000     Ge( 1.00)

     48 Sym. Ops., with inversion, found

[...]

     site n.     atom                  positions (alat units)
         1           Ge  tau(   1) = (   0.0000000   0.0000000   0.0000000  )
         2           Ge  tau(   2) = (  -0.2500000   0.2500000   0.2500000  )

     number of k points=  8436

     Number of k-points >= 100: set verbosity='high' to print them.

     The potential is recalculated from file :
     ./temp/_ph0/Ge.q_2/Ge.save/charge-density

     Starting wfcs are    8 atomic +   22 random wfcs
     Checking if some PAW data can be deallocated...

     Band Structure Calculation
     Davidson diagonalization with overlap

     ethr =  1.25E-10,  avg # of iterations = 21.5

     End of band structure calculation

     Number of k-points >= 100: set verbosity='high' to print the bands.

     highest occupied, lowest unoccupied level (ev):     5.4893    5.6179

     Writing output data file ./temp/_ph0/Ge.q_2/Ge.save/

[...]

      6 Sym.Ops. (no q -> -q+G )

[...]

     Mode symmetry, C_3v (3m)   point group:

[...]

     Representation     1      1 modes -A_1  L_1  To be done

[...]

     Representation     3      2 modes -E    L_3  To be done

[...]

     Representation #  1 mode #   1

[...]

     freq (  1 -  2) =         39.8  [cm-1]   --> E    L_3
     freq (  3 -  3) =         88.6  [cm-1]   --> A_1  L_1
     freq (  4 -  5) =        285.1  [cm-1]   --> E    L_3
     freq (  6 -  6) =        286.0  [cm-1]   --> A_1  L_1

[...]

     Representation     2      1 modes -A_1  L_1  To be done

[...]

     Representation     4      2 modes -E    L_3  To be done

[...]

     Mode symmetry, C_3v (3m)   point group:

     freq (  1 -  2) =         55.0  [cm-1]   --> E    L_3
     freq (  3 -  3) =        165.9  [cm-1]   --> A_1  L_1
     freq (  4 -  4) =        263.3  [cm-1]   --> A_1  L_1
     freq (  5 -  6) =        279.3  [cm-1]   --> E    L_3

[...]

     Representation     1      1 modes -  To be done

[...]

     Mode symmetry, C_4v (4mm)  point group:

[...]

     Representation     1      1 modes -A_1  G_1 D_1  To be done

     Representation     2      1 modes -B_2  G_4 D_2'  To be done

     Representation     3      2 modes -E    G_5 D_5  To be done

[...]

     freq (  1 -  2) =         53.7  [cm-1]   --> E    G_5 D_5
     freq (  3 -  3) =         90.7  [cm-1]   --> A_1  G_1 D_1
     freq (  4 -  5) =        276.1  [cm-1]   --> E    G_5 D_5
     freq (  6 -  6) =        288.7  [cm-1]   --> B_2  G_4 D_2'

[...]

     Mode symmetry, C_s (m)     point group:

[...]

     Representation     1      1 modes -A'  To be done

[...]

     Representation     5      1 modes -A''  To be done

[...]

     freq (  1 -  1) =         64.5  [cm-1]   --> A''
     freq (  2 -  2) =         79.7  [cm-1]   --> A'
     freq (  3 -  3) =        138.6  [cm-1]   --> A'
     freq (  4 -  4) =        260.5  [cm-1]   --> A'
     freq (  5 -  5) =        270.3  [cm-1]   --> A''
     freq (  6 -  6) =        278.0  [cm-1]   --> A'

[...]

     Mode symmetry, C_2v (mm2)  point group:

[...]

     freq (  1 -  1) =         58.2  [cm-1]   --> B_1  D_3  S_3
     freq (  2 -  2) =         77.6  [cm-1]   --> B_2  D_4  S_4
     freq (  3 -  3) =        119.0  [cm-1]   --> A_1  D_1  S_1
     freq (  4 -  4) =        261.3  [cm-1]   --> B_2  D_4  S_4
     freq (  5 -  5) =        278.3  [cm-1]   --> A_2  D_2  S_2
     freq (  6 -  6) =        280.7  [cm-1]   --> A_1  D_1  S_1

[...]

     Representation     2      1 modes -B_2  G_4 D_2'  To be done

[...]

     Representation     4      2 modes -E    G_5 D_5  To be done

[...]

     Mode symmetry, C_4v (4mm)  point group:

     freq (  1 -  2) =         70.9  [cm-1]   --> E    G_5 D_5
     freq (  3 -  3) =        171.6  [cm-1]   --> A_1  G_1 D_1
     freq (  4 -  5) =        263.9  [cm-1]   --> E    G_5 D_5
     freq (  6 -  6) =        270.3  [cm-1]   --> B_2  G_4 D_2'

[...]

     Representation     4      1 modes -A'  To be done

[...]

     Representation     6      1 modes -A''  To be done

[...]

     Mode symmetry, C_s (m)     point group:

     freq (  1 -  1) =         72.3  [cm-1]   --> A''
     freq (  2 -  2) =         93.6  [cm-1]   --> A'
     freq (  3 -  3) =        192.3  [cm-1]   --> A'
     freq (  4 -  4) =        235.5  [cm-1]   --> A'
     freq (  5 -  5) =        263.1  [cm-1]   --> A''
     freq (  6 -  6) =        268.9  [cm-1]   --> A'

[...]

     Representation     6      1 modes -B_2  D_4  S_4  To be done

[...]

     Mode symmetry, C_2v (mm2)  point group:

     freq (  1 -  1) =         75.2  [cm-1]   --> B_1  D_3  S_3
     freq (  2 -  2) =        109.7  [cm-1]   --> B_2  D_4  S_4
     freq (  3 -  3) =        190.5  [cm-1]   --> A_1  D_1  S_1
     freq (  4 -  4) =        212.8  [cm-1]   --> B_2  D_4  S_4
     freq (  5 -  5) =        264.4  [cm-1]   --> A_2  D_2  S_2
     freq (  6 -  6) =        274.7  [cm-1]   --> A_1  D_1  S_1

[...]

     17 Sym.Ops. (with q -> -q+G )

[...]

     Representation #  6 mode #   6

[...]

     Calculation of q =   -0.3333333  -1.0000000   0.0000000

     Title:
     Phonons of Ge

     bravais-lattice index     =            2
     lattice parameter (alat)  =      10.7450  a.u.
     unit-cell volume          =     310.1411 (a.u.)^3
     number of atoms/cell      =            2
     number of atomic types    =            1
     number of electrons       =         8.00
     number of Kohn-Sham states=           30
     kinetic-energy cutoff     =      50.0000  Ry
     charge density cutoff     =     200.0000  Ry
     Exchange-correlation= PBESOL
                           (   1   4  10   8   0   0   0)

[...]

     atomic species   valence    mass     pseudopotential
        Ge             4.00    72.64000     Ge( 1.00)

     48 Sym. Ops., with inversion, found

[...]

     site n.     atom                  positions (alat units)
         1           Ge  tau(   1) = (   0.0000000   0.0000000   0.0000000  )
         2           Ge  tau(   2) = (  -0.2500000   0.2500000   0.2500000  )

     number of k points= 11664

     Number of k-points >= 100: set verbosity='high' to print them.

     The potential is recalculated from file :
     ./temp/_ph0/Ge.q_16/Ge.save/charge-density

     Starting wfcs are    8 atomic +   22 random wfcs
     Checking if some PAW data can be deallocated...

     Band Structure Calculation
     Davidson diagonalization with overlap

     ethr =  1.25E-10,  avg # of iterations = 21.4

     End of band structure calculation

     Number of k-points >= 100: set verbosity='high' to print the bands.

     highest occupied, lowest unoccupied level (ev):     5.4893    5.6179

     Writing output data file ./temp/_ph0/Ge.q_16/Ge.save/

     Phonons of Ge

     bravais-lattice index     =            2
     lattice parameter (alat)  =      10.7450  a.u.
     unit-cell volume          =     310.1411 (a.u.)^3
     number of atoms/cell      =            2
     number of atomic types    =            1
     kinetic-energy cut-off    =      50.0000  Ry
     charge density cut-off    =     200.0000  Ry
     convergence threshold     =      1.0E-14
     beta                      =       0.7000
     number of iterations used =            4
     Exchange-correlation= PBESOL
                           (   1   4  10   8   0   0   0)

     celldm(1)=   10.74500  celldm(2)=    0.00000  celldm(3)=    0.00000
     celldm(4)=    0.00000  celldm(5)=    0.00000  celldm(6)=    0.00000

     crystal axes: (cart. coord. in units of alat)
               a(1) = ( -0.5000  0.0000  0.5000 )
               a(2) = (  0.0000  0.5000  0.5000 )
               a(3) = ( -0.5000  0.5000  0.0000 )

     reciprocal axes: (cart. coord. in units 2 pi/alat)
               b(1) = ( -1.0000 -1.0000  1.0000 )
               b(2) = (  1.0000  1.0000  1.0000 )
               b(3) = ( -1.0000  1.0000 -1.0000 )

     Atoms inside the unit cell:

     Cartesian axes

     site n.  atom      mass           positions (alat units)
        1     Ge  72.6400   tau(    1) = (    0.00000    0.00000    0.00000  )
        2     Ge  72.6400   tau(    2) = (   -0.25000    0.25000    0.25000  )

     Computing dynamical matrix for
                    q = (  -0.3333333  -1.0000000   0.0000000 )

      4 Sym.Ops. (no q -> -q+G )

     G cutoff =  584.9020  (  14841 G-vectors)     FFT grid: ( 36, 36, 36)
     number of k points= 11664

     PseudoPot. # 1 for Ge read from file:
     ./Ge.pbesol-n-kjpaw_psl.1.0.0.UPF
     MD5 check sum: ba6169c2b85c6e6c9360c21392c70c8c
     Pseudo is Projector augmented-wave + core cor, Zval =  4.0
     Generated using "atomic" code by A. Dal Corso v.6.3
     Shape of augmentation charge: PSQ
     Using radial grid of 1207 points,  4 beta functions with:
                l(1) =   0
                l(2) =   0
                l(3) =   1
                l(4) =   1
     Q(r) pseudized with 0 coefficients

     Atomic displacements:
     There are   3 irreducible representations

[...]

     Representation     3      2 modes -  To be done

     Alpha used in Ewald sum =   2.1000

[...]

     Representation #  3 modes #   5  6

     Self-consistent Calculation

[...]

      thresh= 3.085E-08 alpha_mix =  0.700 |ddv_scf|^2 =  1.357E-15

     End of self-consistent calculation

     Convergence has been achieved

     Number of q in the star =   12
     List of q in the star:
          1  -0.333333333  -1.000000000   0.000000000
          2   0.000000000  -1.000000000  -0.333333333
          3   0.000000000  -1.000000000   0.333333333
          4   0.333333333  -1.000000000   0.000000000
          5  -1.000000000   0.000000000  -0.333333333
          6   1.000000000   0.000000000   0.333333333
          7   0.000000000   0.333333333   1.000000000
          8   0.000000000  -0.333333333  -1.000000000
          9  -1.000000000  -0.333333333   0.000000000
         10   1.000000000   0.333333333   0.000000000
         11  -0.333333333   0.000000000   1.000000000
         12   0.333333333   0.000000000   1.000000000

     Diagonalizing the dynamical matrix

     q = (   -0.333333333  -1.000000000   0.000000000 )

     freq (    1) =       2.834438 [THz] =      94.546685 [cm-1]
     freq (    2) =       2.834438 [THz] =      94.546685 [cm-1]
     freq (    3) =       6.163984 [THz] =     205.608360 [cm-1]
     freq (    4) =       6.163984 [THz] =     205.608360 [cm-1]
     freq (    5) =       7.930620 [THz] =     264.536993 [cm-1]
     freq (    6) =       7.930620 [THz] =     264.536993 [cm-1]

     General routines

     Parallel routines

     INITIALIZATION:

     DYNAMICAL MATRIX:

      General routines

   This run was terminated on:  15:22:47   4Feb2022

   JOB DONE.