     Program PWSCF v.6.5 starts on  4Feb2022 at 14: 0: 7

     K-points division:     npool     =     128
     Reading input from scf.in
Warning: card  &IONS ignored
Warning: card  / ignored
Warning: card &CELL ignored
Warning: card     CELL_DYNAMICS   = 'BFGS', ignored
Warning: card     PRESS           = 0.00, ignored
Warning: card     WMASS           = 0.007, ignored
Warning: card / ignored

     Current dimensions of program PWSCF are:
     Max number of different atomic species (ntypx) = 10
     Max number of k-points (npk) =  40000
     Max angular momentum in pseudopotentials (lmaxx) =  3

     Subspace diagonalization in iterative solution of the eigenvalue problem:
     a serial algorithm will be used

     bravais-lattice index     =            2
     lattice parameter (alat)  =      10.7450  a.u.
     unit-cell volume          =     310.1411 (a.u.)^3
     number of atoms/cell      =            2
     number of atomic types    =            1
     number of electrons       =         8.00
     number of Kohn-Sham states=           30
     kinetic-energy cutoff     =      50.0000  Ry
     charge density cutoff     =     200.0000  Ry
     convergence threshold     =      1.0E-12
     mixing beta               =       0.7000
     number of iterations used =            8  plain     mixing
     Exchange-correlation= SLA PW PSX PSC
                           (   1   4  10   8   0   0   0)

     celldm(1)=  10.745000  celldm(2)=   0.000000  celldm(3)=   0.000000
     celldm(4)=   0.000000  celldm(5)=   0.000000  celldm(6)=   0.000000

     crystal axes: (cart. coord. in units of alat)
               a(1) = (  -0.500000   0.000000   0.500000 )
               a(2) = (   0.000000   0.500000   0.500000 )
               a(3) = (  -0.500000   0.500000   0.000000 )

     reciprocal axes: (cart. coord. in units 2 pi/alat)
               b(1) = ( -1.000000 -1.000000  1.000000 )
               b(2) = (  1.000000  1.000000  1.000000 )
               b(3) = ( -1.000000  1.000000 -1.000000 )

     PseudoPot. # 1 for Ge read from file:
     ./Ge.pbesol-n-kjpaw_psl.1.0.0.UPF
     MD5 check sum: ba6169c2b85c6e6c9360c21392c70c8c
     Pseudo is Projector augmented-wave + core cor, Zval =  4.0
     Generated using "atomic" code by A. Dal Corso v.6.3
     Shape of augmentation charge: PSQ
     Using radial grid of 1207 points,  4 beta functions with:
                l(1) =   0
                l(2) =   0
                l(3) =   1
                l(4) =   1
     Q(r) pseudized with 0 coefficients

     atomic species   valence    mass     pseudopotential
        Ge             4.00    72.64000     Ge( 1.00)

     48 Sym. Ops., with inversion, found (24 have fractional translation)

                                    s                        frac. trans.

      isym =  1     identity

 cryst.   s( 1) = (     1          0          0      )
                  (     0          1          0      )
                  (     0          0          1      )

 cart.    s( 1) = (  1.0000000  0.0000000  0.0000000 )
                  (  0.0000000  1.0000000  0.0000000 )
                  (  0.0000000  0.0000000  1.0000000 )

      isym =  2     180 deg rotation - cart. axis [0,0,1]

[...]

 cryst.   s( 4) = (     0         -1          1      )
                  (     0         -1          0      )
                  (     1         -1          0      )

 cart.    s( 4) = (  1.0000000  0.0000000  0.0000000 )
                  (  0.0000000 -1.0000000  0.0000000 )
                  (  0.0000000  0.0000000 -1.0000000 )

[...]

 cryst.   s( 5) = (     0         -1          0      )    f =( -0.2500000 )
                  (    -1          0          0      )       ( -0.2500000 )
                  (     0          0         -1      )       ( -0.2500000 )

 cart.    s( 5) = (  0.0000000  1.0000000  0.0000000 )    f =(  0.2500000 )
                  (  1.0000000  0.0000000  0.0000000 )       ( -0.2500000 )
                  (  0.0000000  0.0000000 -1.0000000 )       ( -0.2500000 )

[...]

 cryst.   s( 9) = (    -1          0          0      )    f =( -0.2500000 )
                  (     0          0         -1      )       ( -0.2500000 )
                  (     0         -1          0      )       ( -0.2500000 )

 cart.    s( 9) = (  0.0000000  0.0000000  1.0000000 )    f =(  0.2500000 )
                  (  0.0000000 -1.0000000  0.0000000 )       ( -0.2500000 )
                  (  1.0000000  0.0000000  0.0000000 )       ( -0.2500000 )

[...]

 cryst.   s(10) = (     1          0          0      )    f =( -0.2500000 )
                  (     1         -1          0      )       ( -0.2500000 )
                  (     1          0         -1      )       ( -0.2500000 )

 cart.    s(10) = (  0.0000000  0.0000000 -1.0000000 )    f =(  0.2500000 )
                  (  0.0000000 -1.0000000  0.0000000 )       ( -0.2500000 )
                  ( -1.0000000  0.0000000  0.0000000 )       ( -0.2500000 )

[...]

 cryst.   s(17) = (    -1          0          1      )
                  (    -1          1          0      )
                  (    -1          0          0      )

 cart.    s(17) = (  0.0000000  1.0000000  0.0000000 )
                  (  0.0000000  0.0000000  1.0000000 )
                  (  1.0000000  0.0000000  0.0000000 )

[...]

      isym = 24     120 deg rotation - cart. axis [-1,-1,1]

[...]

      isym = 25     inversion

[...]

      isym = 26     inv. 180 deg rotation - cart. axis [0,0,1]

[...]

 cryst.   s(40) = (    -1          1          0      )
                  (    -1          0          1      )
                  (    -1          0          0      )

 cart.    s(40) = ( -1.0000000  0.0000000  0.0000000 )
                  (  0.0000000  0.0000000  1.0000000 )
                  (  0.0000000 -1.0000000  0.0000000 )

[...]

      isym = 48     inv. 120 deg rotation - cart. axis [-1,-1,1]

 cryst.   s(48) = (    -1          1          0      )    f =( -0.2500000 )
                  (     0          1         -1      )       ( -0.2500000 )
                  (     0          1          0      )       ( -0.2500000 )

 cart.    s(48) = (  0.0000000  0.0000000  1.0000000 )    f =(  0.2500000 )
                  ( -1.0000000  0.0000000  0.0000000 )       ( -0.2500000 )
                  (  0.0000000  1.0000000  0.0000000 )       ( -0.2500000 )

     point group O_h (m-3m)
     there are 10 classes
     the character table:

       E     8C3   3C2   6C4   6C2'  i     8S6   3s_h  6S4   6s_d
A_1g   1.00  1.00  1.00  1.00  1.00  1.00  1.00  1.00  1.00  1.00
A_2g   1.00  1.00  1.00 -1.00 -1.00  1.00  1.00  1.00 -1.00 -1.00
E_g    2.00 -1.00  2.00  0.00  0.00  2.00 -1.00  2.00  0.00  0.00
T_1g   3.00  0.00 -1.00  1.00 -1.00  3.00  0.00 -1.00  1.00 -1.00
T_2g   3.00  0.00 -1.00 -1.00  1.00  3.00  0.00 -1.00 -1.00  1.00
A_1u   1.00  1.00  1.00  1.00  1.00 -1.00 -1.00 -1.00 -1.00 -1.00
A_2u   1.00  1.00  1.00 -1.00 -1.00 -1.00 -1.00 -1.00  1.00  1.00
E_u    2.00 -1.00  2.00  0.00  0.00 -2.00  1.00 -2.00  0.00  0.00
T_1u   3.00  0.00 -1.00  1.00 -1.00 -3.00  0.00  1.00 -1.00  1.00
T_2u   3.00  0.00 -1.00 -1.00  1.00 -3.00  0.00  1.00  1.00 -1.00

     the symmetry operations in each class and the name of the first element:

     E        1
          identity
     8C3     17   19   20   18   24   21   22   23
          120 deg rotation - cart. axis [-1,-1,-1]
     3C2      2    4    3
          180 deg rotation - cart. axis [0,0,1]
     6C4      7    8   15   16   12   11
           90 deg rotation - cart. axis [0,0,-1]
     6C2'     5    6   14   13   10    9
          180 deg rotation - cart. axis [1,1,0]
     i       25
          inversion
     8S6     41   43   44   42   48   45   46   47
          inv. 120 deg rotation - cart. axis [-1,-1,-1]
     3s_h    26   28   27
          inv. 180 deg rotation - cart. axis [0,0,1]
     6S4     31   32   39   40   36   35
          inv.  90 deg rotation - cart. axis [0,0,-1]
     6s_d    29   30   38   37   34   33
          inv. 180 deg rotation - cart. axis [1,1,0]

   Cartesian axes

     site n.     atom                  positions (alat units)
         1           Ge  tau(   1) = (   0.0000000   0.0000000   0.0000000  )
         2           Ge  tau(   2) = (  -0.2500000   0.2500000   0.2500000  )

   Crystallographic axes

     site n.     atom                  positions (cryst. coord.)
         1           Ge  tau(   1) = (  0.0000000  0.0000000  0.0000000  )
         2           Ge  tau(   2) = (  0.2500000  0.2500000  0.2500000  )

     number of k points=   570
                       cart. coord. in units 2pi/alat
        k(    1) = (  -0.0277778   0.0277778   0.0277778), wk =   0.0006859
        k(    2) = (  -0.0833333   0.0833333  -0.0277778), wk =   0.0020576
        k(    3) = (  -0.1388889   0.1388889  -0.0833333), wk =   0.0020576
        k(    4) = (  -0.1944444   0.1944444  -0.1388889), wk =   0.0020576
        k(    5) = (  -0.2500000   0.2500000  -0.1944444), wk =   0.0020576
        k(    6) = (  -0.3055556   0.3055556  -0.2500000), wk =   0.0020576
        k(    7) = (  -0.3611111   0.3611111  -0.3055556), wk =   0.0020576
        k(    8) = (  -0.4166667   0.4166667  -0.3611111), wk =   0.0020576
        k(    9) = (  -0.4722222   0.4722222  -0.4166667), wk =   0.0020576
        k(   10) = (   0.4722222  -0.4722222   0.5277778), wk =   0.0020576
        k(   11) = (   0.4166667  -0.4166667   0.4722222), wk =   0.0020576
        k(   12) = (   0.3611111  -0.3611111   0.4166667), wk =   0.0020576
        k(   13) = (   0.3055556  -0.3055556   0.3611111), wk =   0.0020576
        k(   14) = (   0.2500000  -0.2500000   0.3055556), wk =   0.0020576
        k(   15) = (   0.1944444  -0.1944444   0.2500000), wk =   0.0020576
        k(   16) = (   0.1388889  -0.1388889   0.1944444), wk =   0.0020576
        k(   17) = (   0.0833333  -0.0833333   0.1388889), wk =   0.0020576
        k(   18) = (   0.0277778  -0.0277778   0.0833333), wk =   0.0020576
        k(   19) = (  -0.0277778   0.1388889   0.0277778), wk =   0.0020576
        k(   20) = (  -0.0833333   0.1944444  -0.0277778), wk =   0.0041152
        k(   21) = (  -0.1388889   0.2500000  -0.0833333), wk =   0.0041152
        k(   22) = (  -0.1944444   0.3055556  -0.1388889), wk =   0.0041152
        k(   23) = (  -0.2500000   0.3611111  -0.1944444), wk =   0.0041152
        k(   24) = (  -0.3055556   0.4166667  -0.2500000), wk =   0.0041152
        k(   25) = (  -0.3611111   0.4722222  -0.3055556), wk =   0.0041152
        k(   26) = (  -0.4166667   0.5277778  -0.3611111), wk =   0.0041152
        k(   27) = (   0.5277778  -0.4166667   0.5833333), wk =   0.0041152
        k(   28) = (   0.4722222  -0.3611111   0.5277778), wk =   0.0041152
        k(   29) = (   0.4166667  -0.3055556   0.4722222), wk =   0.0041152
        k(   30) = (   0.3611111  -0.2500000   0.4166667), wk =   0.0041152
        k(   31) = (   0.3055556  -0.1944444   0.3611111), wk =   0.0041152
        k(   32) = (   0.2500000  -0.1388889   0.3055556), wk =   0.0041152
        k(   33) = (   0.1944444  -0.0833333   0.2500000), wk =   0.0041152
        k(   34) = (   0.1388889  -0.0277778   0.1944444), wk =   0.0041152
[...]
        k(   54) = (  -0.1388889   0.4722222  -0.0833333), wk =   0.0041152
        k(   55) = (  -0.1944444   0.5277778  -0.1388889), wk =   0.0041152
        k(   56) = (  -0.2500000   0.5833333  -0.1944444), wk =   0.0041152
        k(   57) = (  -0.3055556   0.6388889  -0.2500000), wk =   0.0041152
        k(   58) = (   0.6388889  -0.3055556   0.6944444), wk =   0.0041152
        k(   59) = (   0.5833333  -0.2500000   0.6388889), wk =   0.0041152
        k(   60) = (   0.5277778  -0.1944444   0.5833333), wk =   0.0041152
[...]
        k(  556) = (   0.5277778  -0.3055556   1.2500000), wk =   0.0041152
        k(  557) = (   0.4722222  -0.2500000   1.1944444), wk =   0.0041152
        k(  558) = (  -0.3611111  -1.3055556   0.3611111), wk =   0.0020576
        k(  559) = (  -0.4166667  -1.2500000   0.3055556), wk =   0.0041152
        k(  560) = (  -0.3611111  -1.1944444   0.3611111), wk =   0.0020576
        k(  561) = (  -0.4166667   0.4166667   0.4166667), wk =   0.0006859
        k(  562) = (  -0.4722222   0.4722222   0.3611111), wk =   0.0020576
        k(  563) = (   0.4722222  -0.4722222   1.3055556), wk =   0.0020576
        k(  564) = (   0.4166667  -0.4166667   1.2500000), wk =   0.0020576
        k(  565) = (  -0.4166667   0.5277778   0.4166667), wk =   0.0020576
        k(  566) = (   0.5277778  -0.4166667   1.3611111), wk =   0.0041152
        k(  567) = (   0.4722222  -0.3611111   1.3055556), wk =   0.0041152
        k(  568) = (  -0.4166667  -1.3611111   0.4166667), wk =   0.0020576
        k(  569) = (  -0.4722222   0.4722222   0.4722222), wk =   0.0006859
        k(  570) = (   0.4722222  -0.4722222   1.4166667), wk =   0.0020576

                       cryst. coord.
        k(    1) = (   0.0277778   0.0277778   0.0277778), wk =   0.0006859
        k(    2) = (   0.0277778   0.0277778   0.0833333), wk =   0.0020576
        k(    3) = (   0.0277778   0.0277778   0.1388889), wk =   0.0020576
        k(    4) = (   0.0277778   0.0277778   0.1944444), wk =   0.0020576
        k(    5) = (   0.0277778   0.0277778   0.2500000), wk =   0.0020576
        k(    6) = (   0.0277778   0.0277778   0.3055556), wk =   0.0020576
        k(    7) = (   0.0277778   0.0277778   0.3611111), wk =   0.0020576
        k(    8) = (   0.0277778   0.0277778   0.4166667), wk =   0.0020576
        k(    9) = (   0.0277778   0.0277778   0.4722222), wk =   0.0020576
        k(   10) = (   0.0277778   0.0277778  -0.4722222), wk =   0.0020576
        k(   11) = (   0.0277778   0.0277778  -0.4166667), wk =   0.0020576
        k(   12) = (   0.0277778   0.0277778  -0.3611111), wk =   0.0020576
        k(   13) = (   0.0277778   0.0277778  -0.3055556), wk =   0.0020576
        k(   14) = (   0.0277778   0.0277778  -0.2500000), wk =   0.0020576
        k(   15) = (   0.0277778   0.0277778  -0.1944444), wk =   0.0020576
        k(   16) = (   0.0277778   0.0277778  -0.1388889), wk =   0.0020576
        k(   17) = (   0.0277778   0.0277778  -0.0833333), wk =   0.0020576
        k(   18) = (   0.0277778   0.0277778  -0.0277778), wk =   0.0020576
        k(   19) = (   0.0277778   0.0833333   0.0833333), wk =   0.0020576
        k(   20) = (   0.0277778   0.0833333   0.1388889), wk =   0.0041152
        k(   21) = (   0.0277778   0.0833333   0.1944444), wk =   0.0041152
        k(   22) = (   0.0277778   0.0833333   0.2500000), wk =   0.0041152
        k(   23) = (   0.0277778   0.0833333   0.3055556), wk =   0.0041152
        k(   24) = (   0.0277778   0.0833333   0.3611111), wk =   0.0041152
        k(   25) = (   0.0277778   0.0833333   0.4166667), wk =   0.0041152
        k(   26) = (   0.0277778   0.0833333   0.4722222), wk =   0.0041152
        k(   27) = (   0.0277778   0.0833333  -0.4722222), wk =   0.0041152
        k(   28) = (   0.0277778   0.0833333  -0.4166667), wk =   0.0041152
        k(   29) = (   0.0277778   0.0833333  -0.3611111), wk =   0.0041152
        k(   30) = (   0.0277778   0.0833333  -0.3055556), wk =   0.0041152
        k(   31) = (   0.0277778   0.0833333  -0.2500000), wk =   0.0041152
        k(   32) = (   0.0277778   0.0833333  -0.1944444), wk =   0.0041152
        k(   33) = (   0.0277778   0.0833333  -0.1388889), wk =   0.0041152
        k(   34) = (   0.0277778   0.0833333  -0.0833333), wk =   0.0041152
        k(   35) = (   0.0277778   0.0833333  -0.0277778), wk =   0.0041152
        k(   36) = (   0.0277778   0.1388889   0.1388889), wk =   0.0020576
        k(   37) = (   0.0277778   0.1388889   0.1944444), wk =   0.0041152
        k(   38) = (   0.0277778   0.1388889   0.2500000), wk =   0.0041152
        k(   39) = (   0.0277778   0.1388889   0.3055556), wk =   0.0041152
        k(   40) = (   0.0277778   0.1388889   0.3611111), wk =   0.0041152
        k(   41) = (   0.0277778   0.1388889   0.4166667), wk =   0.0041152
        k(   42) = (   0.0277778   0.1388889   0.4722222), wk =   0.0041152
        k(   43) = (   0.0277778   0.1388889  -0.4722222), wk =   0.0041152
        k(   44) = (   0.0277778   0.1388889  -0.4166667), wk =   0.0041152
        k(   45) = (   0.0277778   0.1388889  -0.3611111), wk =   0.0041152
        k(   46) = (   0.0277778   0.1388889  -0.3055556), wk =   0.0041152
        k(   47) = (   0.0277778   0.1388889  -0.2500000), wk =   0.0041152
        k(   48) = (   0.0277778   0.1388889  -0.1944444), wk =   0.0041152
        k(   49) = (   0.0277778   0.1388889  -0.1388889), wk =   0.0041152
        k(   50) = (   0.0277778   0.1388889  -0.0833333), wk =   0.0041152
        k(   51) = (   0.0277778   0.1388889  -0.0277778), wk =   0.0041152
        k(   52) = (   0.0277778   0.1944444   0.1944444), wk =   0.0020576
        k(   53) = (   0.0277778   0.1944444   0.2500000), wk =   0.0041152
        k(   54) = (   0.0277778   0.1944444   0.3055556), wk =   0.0041152
        k(   55) = (   0.0277778   0.1944444   0.3611111), wk =   0.0041152
        k(   56) = (   0.0277778   0.1944444   0.4166667), wk =   0.0041152
        k(   57) = (   0.0277778   0.1944444   0.4722222), wk =   0.0041152
        k(   58) = (   0.0277778   0.1944444  -0.4722222), wk =   0.0041152
        k(   59) = (   0.0277778   0.1944444  -0.4166667), wk =   0.0041152
        k(   60) = (   0.0277778   0.1944444  -0.3611111), wk =   0.0041152
[...]
        k(  556) = (   0.3611111   0.4722222  -0.4166667), wk =   0.0041152
        k(  557) = (   0.3611111   0.4722222  -0.3611111), wk =   0.0041152
        k(  558) = (   0.3611111  -0.4722222  -0.4722222), wk =   0.0020576
        k(  559) = (   0.3611111  -0.4722222  -0.4166667), wk =   0.0041152
        k(  560) = (   0.3611111  -0.4166667  -0.4166667), wk =   0.0020576
        k(  561) = (   0.4166667   0.4166667   0.4166667), wk =   0.0006859
        k(  562) = (   0.4166667   0.4166667   0.4722222), wk =   0.0020576
        k(  563) = (   0.4166667   0.4166667  -0.4722222), wk =   0.0020576
        k(  564) = (   0.4166667   0.4166667  -0.4166667), wk =   0.0020576
        k(  565) = (   0.4166667   0.4722222   0.4722222), wk =   0.0020576
        k(  566) = (   0.4166667   0.4722222  -0.4722222), wk =   0.0041152
        k(  567) = (   0.4166667   0.4722222  -0.4166667), wk =   0.0041152
        k(  568) = (   0.4166667  -0.4722222  -0.4722222), wk =   0.0020576
        k(  569) = (   0.4722222   0.4722222   0.4722222), wk =   0.0006859
        k(  570) = (   0.4722222   0.4722222  -0.4722222), wk =   0.0020576

     Initial potential from superposition of free atoms

     starting charge    7.99858, renormalised to    8.00000
     Starting wfcs are    8 randomized atomic wfcs +   22 random wfcs
     Checking if some PAW data can be deallocated...

     Self-consistent Calculation

     iteration #  1     ecut=    50.00 Ry     beta= 0.70
     Davidson diagonalization with overlap
     ethr =  1.00E-02,  avg # of iterations =  5.5

     Threshold (ethr) on eigenvalues was too large:
     Diagonalizing with lowered threshold

     Davidson diagonalization with overlap
     ethr =  3.76E-04,  avg # of iterations =  2.2

          k =-0.0278 0.0278 0.0278     band energies (ev):

    -7.4064   4.6687   5.1426   5.1426   5.5842   7.9056   7.9056   7.9098
    11.7927  14.6749  14.6749  16.2929  16.4757  16.4757  19.1687  29.5925
    29.8362  29.8362  30.8065  30.8066  31.1935  31.8724  31.8725  33.6624
    33.9660  33.9662  39.4310  42.0087  42.1452  42.1511

     occupation numbers
     1.0000   1.0000   1.0000   1.0000   0.0000   0.0000   0.0000   0.0000
     0.0000   0.0000   0.0000   0.0000   0.0000   0.0000   0.0000   0.0000
     0.0000   0.0000   0.0000   0.0000   0.0000   0.0000   0.0000   0.0000
     0.0000   0.0000   0.0000   0.0000   0.0000   0.0000

[...]

          k = 0.4722-0.4722 0.5278     band energies (ev):

[...]

     highest occupied, lowest unoccupied level (ev):     5.1426    5.4036

!    total energy              =    -322.02030998 Ry
     Harris-Foulkes estimate   =    -322.02850600 Ry
     estimated scf accuracy    <       0.03007344 Ry

     total all-electron energy =     -8389.901691 Ry

     The total energy is the sum of the following terms:

     one-electron contribution =       5.42105703 Ry
     hartree contribution      =       1.12715346 Ry
     xc contribution           =     -13.17811677 Ry
     ewald contribution        =     -16.04258145 Ry
     scf correction            =       0.04757407 Ry
     one-center paw contrib.   =    -299.39539632 Ry
      -> PAW hartree energy AE =       4.03734197 Ry
      -> PAW hartree energy PS =      -4.03281222 Ry
      -> PAW xc energy AE      =    -155.73366446 Ry
      -> PAW xc energy PS      =       6.03143655 Ry
      -> total E_H with PAW    =       1.13168321 Ry
      -> total E_XC with PAW   =    -162.88034468 Ry

[...]

          k =-0.4722 0.4722 0.4722     band energies (ev):

[...]

          k = 0.4722-0.4722 1.4167     band energies (ev):

[...]

     one-electron contribution =       5.43352804 Ry
     hartree contribution      =       1.15593425 Ry
     xc contribution           =     -13.17161421 Ry
     ewald contribution        =     -16.04258145 Ry
     scf correction            =       0.00000038 Ry
     one-center paw contrib.   =    -299.39643753 Ry
      -> PAW hartree energy AE =       4.38803746 Ry
      -> PAW hartree energy PS =      -4.38349122 Ry
      -> PAW xc energy AE      =    -155.84191548 Ry
      -> PAW xc energy PS      =       6.13915047 Ry
      -> total E_H with PAW    =       1.16048049 Ry
      -> total E_XC with PAW   =    -162.87437921 Ry

     iteration #  7     ecut=    50.00 Ry     beta= 0.70
     Davidson diagonalization with overlap
     ethr =  1.00E-13,  avg # of iterations =  2.0

     End of self-consistent calculation

          k =-0.0278 0.0278 0.0278 (  1850 PWs)   bands (ev):

[...]

          k = 0.4722-0.4722 0.5278 (  1861 PWs)   bands (ev):

[...]

          k =-0.4722 0.4722 0.4722 (  1865 PWs)   bands (ev):

[...]

          k = 0.4722-0.4722 1.4167 (  1858 PWs)   bands (ev):

    -5.0697  -2.0198   3.7110   4.0958   6.0351   9.1312   9.3208  12.8069
    15.6030  15.9511  16.4393  17.3578  18.4201  18.4878  24.2692  25.9733
    26.8517  27.4019  28.0399  28.5132  30.7148  31.6861  31.7346  31.9523
    33.7147  34.1186  35.8913  36.1197  36.7077  37.9495

     occupation numbers
     1.0000   1.0000   1.0000   1.0000   0.0000   0.0000   0.0000   0.0000
     0.0000   0.0000   0.0000   0.0000   0.0000   0.0000   0.0000   0.0000
     0.0000   0.0000   0.0000   0.0000   0.0000   0.0000   0.0000   0.0000
     0.0000   0.0000   0.0000   0.0000   0.0000   0.0000

     highest occupied, lowest unoccupied level (ev):     5.4893    5.6179

!    total energy              =    -322.02117052 Ry
     Harris-Foulkes estimate   =    -322.02117052 Ry
     estimated scf accuracy    <          1.1E-13 Ry

     total all-electron energy =     -8389.902552 Ry

     The total energy is the sum of the following terms:

     one-electron contribution =       5.43352870 Ry
     hartree contribution      =       1.15593464 Ry
     xc contribution           =     -13.17161457 Ry
     ewald contribution        =     -16.04258145 Ry
     one-center paw contrib.   =    -299.39643784 Ry
      -> PAW hartree energy AE =       4.38803139 Ry
      -> PAW hartree energy PS =      -4.38348514 Ry
      -> PAW xc energy AE      =    -155.84191383 Ry
      -> PAW xc energy PS      =       6.13914866 Ry
      -> total E_H with PAW    =       1.16048089 Ry
      -> total E_XC with PAW   =    -162.87437974 Ry

     convergence has been achieved in   7 iterations

     Forces acting on atoms (cartesian axes, Ry/au):

     atom    1 type  1   force =     0.00000000    0.00000000   -0.00000000
     atom    2 type  1   force =     0.00000000   -0.00000000    0.00000000
     The non-local contrib.  to forces
     atom    1 type  1   force =    -0.00000000    0.00000000   -0.00000000
     atom    2 type  1   force =    -0.00000000    0.00000000    0.00000000
     The ionic contribution  to forces
     atom    1 type  1   force =     0.00000000   -0.00000000   -0.00000000
     atom    2 type  1   force =    -0.00000000    0.00000000    0.00000000
     The local contribution  to forces
     atom    1 type  1   force =    -0.00000000    0.00000000    0.00000000
     atom    2 type  1   force =     0.00000000    0.00000000   -0.00000000
     The core correction contribution to forces
     atom    1 type  1   force =     0.00000000   -0.00000000    0.00000000
     atom    2 type  1   force =     0.00000000    0.00000000   -0.00000000
     The Hubbard contrib.    to forces
     atom    1 type  1   force =     0.00000000    0.00000000    0.00000000
     atom    2 type  1   force =     0.00000000    0.00000000    0.00000000
     The SCF correction term to forces
     atom    1 type  1   force =     0.00000000    0.00000000   -0.00000000
     atom    2 type  1   force =    -0.00000000   -0.00000000    0.00000000

     Total force =     0.000000     Total SCF correction =     0.000000

     Computing stress (Cartesian axis) and pressure

          total   stress  (Ry/bohr**3)                   (kbar)     P=       -0.03
  -0.00000018  -0.00000000  -0.00000000           -0.03       -0.00       -0.00
  -0.00000000  -0.00000018   0.00000000           -0.00       -0.03        0.00
  -0.00000000   0.00000000  -0.00000018           -0.00        0.00       -0.03

     kinetic stress (kbar)   1850.76     -0.00      0.00
                                0.00   1850.76     -0.00
                                0.00     -0.00   1850.76

     local   stress (kbar)    842.35     -0.00      0.00
                               -0.00    842.35      0.00
                                0.00      0.00    842.35

     nonloc. stress (kbar)    773.92     -0.00      0.00
                               -0.00    773.92      0.00
                               -0.00     -0.00    773.92

     hartree stress (kbar)    182.76     -0.00     -0.00
                               -0.00    182.76      0.00
                               -0.00      0.00    182.76

     exc-cor stress (kbar)   2968.41      0.00     -0.00
                                0.00   2968.41      0.00
                               -0.00      0.00   2968.41

     corecor stress (kbar)  -4081.82      0.00     -0.00
                                0.00  -4081.82     -0.00
                               -0.00     -0.00  -4081.82

     ewald   stress (kbar)  -2536.42     -0.00     -0.00
                               -0.00  -2536.42      0.00
                               -0.00      0.00  -2536.42

     hubbard stress (kbar)      0.00      0.00      0.00
                                0.00      0.00      0.00
                                0.00      0.00      0.00

     london  stress (kbar)      0.00      0.00      0.00
                                0.00      0.00      0.00
                                0.00      0.00      0.00

     DFT-D3  stress (kbar)      0.00      0.00      0.00
                                0.00      0.00      0.00
                                0.00      0.00      0.00

     XDM     stress (kbar)      0.00      0.00      0.00
                                0.00      0.00      0.00
                                0.00      0.00      0.00

     dft-nl  stress (kbar)      0.00      0.00      0.00
                                0.00      0.00      0.00
                                0.00      0.00      0.00

     TS-vdW  stress (kbar)      0.00      0.00      0.00
                                0.00      0.00      0.00
                                0.00      0.00      0.00

     Writing output data file ./temp/Ge.save/

     General routines

     Parallel routines

     PAW routines

   This run was terminated on:  14: 0:18   4Feb2022

   JOB DONE.