     Program PHONON v.6.6 starts on 16Oct2022 at 10: 8: 7

     K-points division:     npool     =      96
     Fft bands division:     nmany     =       1

     Reading xml data from directory:

     ./ge.save/

     IMPORTANT: XC functional enforced from input :
     Exchange-correlation= PBESOL
                           (   1   4  10   8   0   0   0)
     Any further DFT definition will be discarded
     Please, verify this is what you really want

     Reading collected, re-writing distributed wavefunctions

     Dynamical matrices for ( 6, 6, 6)  uniform grid of q-points
     (  16 q-points):
       N         xq(1)         xq(2)         xq(3)
       1   0.000000000   0.000000000   0.000000000
       2  -0.166666667   0.166666667  -0.166666667
       3  -0.333333333   0.333333333  -0.333333333
       4   0.500000000  -0.500000000   0.500000000
       5   0.000000000   0.333333333   0.000000000
       6  -0.166666667   0.500000000  -0.166666667
       7   0.666666667  -0.333333333   0.666666667
       8   0.500000000  -0.166666667   0.500000000
       9   0.333333333   0.000000000   0.333333333
      10   0.000000000   0.666666667   0.000000000
      11   0.833333333  -0.166666667   0.833333333
      12   0.666666667  -0.000000000   0.666666667
      13   0.000000000  -1.000000000   0.000000000
      14   0.666666667  -0.333333333   1.000000000
      15   0.500000000  -0.166666667   0.833333333
      16  -0.333333333  -1.000000000   0.000000000

     Saving dvscf to file. Distribute only q points, not irreducible represetations.

     Calculation of q =    0.0000000   0.0000000   0.0000000

     phonon

     bravais-lattice index     =            2
     lattice parameter (alat)  =      10.7466  a.u.
     unit-cell volume          =     310.2790 (a.u.)^3
     number of atoms/cell      =            2
     number of atomic types    =            1
     kinetic-energy cut-off    =      66.0000  Ry
     charge density cut-off    =     264.0000  Ry
     convergence threshold     =      1.0E-22
     beta                      =       0.7000
     number of iterations used =            4
     Exchange-correlation= PBESOL
                           (   1   4  10   8   0   0   0)

     celldm(1)=   10.74659  celldm(2)=    0.00000  celldm(3)=    0.00000
     celldm(4)=    0.00000  celldm(5)=    0.00000  celldm(6)=    0.00000

     crystal axes: (cart. coord. in units of alat)
               a(1) = ( -0.5000  0.0000  0.5000 )
               a(2) = (  0.0000  0.5000  0.5000 )
               a(3) = ( -0.5000  0.5000  0.0000 )

     reciprocal axes: (cart. coord. in units 2 pi/alat)
               b(1) = ( -1.0000 -1.0000  1.0000 )
               b(2) = (  1.0000  1.0000  1.0000 )
               b(3) = ( -1.0000  1.0000 -1.0000 )

     Atoms inside the unit cell:

     Cartesian axes

     site n.  atom      mass           positions (alat units)
        1     Ge  72.6400   tau(    1) = (    0.00000    0.00000    0.00000  )
        2     Ge  72.6400   tau(    2) = (   -0.25000    0.25000    0.25000  )

     Computing dynamical matrix for
                    q = (   0.0000000   0.0000000   0.0000000 )

     49 Sym.Ops. (with q -> -q+G )

     G cutoff =  772.2996  (  22419 G-vectors)     FFT grid: ( 40, 40, 40)

     number of k points=   145  Gaussian smearing, width (Ry)=  0.0200

     PseudoPot. # 1 for Ge read from file:
     /scratch1/fanchem/Ge/pp/Ge.pbesol-n-kjpaw_psl.1.0.0.UPF
     MD5 check sum: ba6169c2b85c6e6c9360c21392c70c8c
     Pseudo is Projector augmented-wave + core cor, Zval =  4.0
     Generated using "atomic" code by A. Dal Corso v.6.3
     Shape of augmentation charge: PSQ
     Using radial grid of 1207 points,  4 beta functions with:
                l(1) =   0
                l(2) =   0
                l(3) =   1
                l(4) =   1
     Q(r) pseudized with 0 coefficients

     Mode symmetry, O_h (m-3m)  point group:

     Atomic displacements:
     There are    2 irreducible representations

     Representation     1      3 modes -  To be done

[...]

     Alpha used in Ewald sum =   2.8000

     Representation #   1 modes #   1   2   3

     Self-consistent Calculation

     Pert. #  1: Fermi energy shift (Ry) =    -1.9516E-18    -2.2959E-39
     Pert. #  2: Fermi energy shift (Ry) =     1.8793E-18     1.2245E-40
     Pert. #  3: Fermi energy shift (Ry) =     0.0000E+00     1.5306E-39

      thresh= 1.000E-02 alpha_mix =  0.700 |ddv_scf|^2 =  8.764E-09

[...]

     End of self-consistent calculation

     Convergence has been achieved

[...]

     Pert. #  1: Fermi energy shift (Ry) =     1.6371E-25     8.2652E-40
     Pert. #  2: Fermi energy shift (Ry) =     3.8343E-25     1.2321E-39
     Pert. #  3: Fermi energy shift (Ry) =     1.7233E-25     3.0612E-40

[...]

     Number of q in the star =    1
     List of q in the star:
          1   0.000000000   0.000000000   0.000000000

     Diagonalizing the dynamical matrix

     q = (    0.000000000   0.000000000   0.000000000 )

     freq (    1) =      -0.128596 [THz] =      -4.289489 [cm-1]
     freq (    2) =      -0.128596 [THz] =      -4.289489 [cm-1]
     freq (    3) =      -0.128596 [THz] =      -4.289489 [cm-1]
     freq (    4) =       8.627328 [THz] =     287.776674 [cm-1]
     freq (    5) =       8.627328 [THz] =     287.776674 [cm-1]
     freq (    6) =       8.627328 [THz] =     287.776674 [cm-1]

     Mode symmetry, O_h (m-3m)  point group:

     freq (   1-   3) =         -4.3  [cm-1]   --> T_1u G_15  G_4- I
     freq (   4-   6) =        287.8  [cm-1]   --> T_2g G_25' G_5+ R

[...]

     Subspace diagonalization in iterative solution of the eigenvalue problem:
     a serial algorithm will be used

     Title:
     phonon

     bravais-lattice index     =            2
     lattice parameter (alat)  =      10.7466  a.u.
     unit-cell volume          =     310.2790 (a.u.)^3
     number of atoms/cell      =            2
     number of atomic types    =            1
     number of electrons       =         8.00
     number of Kohn-Sham states=            8
     kinetic-energy cutoff     =      66.0000  Ry
     charge density cutoff     =     264.0000  Ry
     Exchange-correlation= PBESOL
                           (   1   4  10   8   0   0   0)

[...]

     atomic species   valence    mass     pseudopotential
        Ge             4.00    72.64000     Ge( 1.00)

     48 Sym. Ops., with inversion, found

[...]

     site n.     atom                  positions (alat units)
         1           Ge  tau(   1) = (   0.0000000   0.0000000   0.0000000  )
         2           Ge  tau(   2) = (  -0.2500000   0.2500000   0.2500000  )

[...]

     Number of k-points >= 100: set verbosity='high' to print them.

     The potential is recalculated from file :
     ./_ph0/ge.q_2/ge.save/charge-density

     Starting wfcs are    8 atomic wfcs
     Checking if some PAW data can be deallocated...

     Band Structure Calculation
     Davidson diagonalization with overlap

     ethr =  1.25E-10,  avg # of iterations = 15.1

     End of band structure calculation

     Number of k-points >= 100: set verbosity='high' to print the bands.

     the Fermi energy is     5.5827 ev

     Writing output data file ./_ph0/ge.q_2/ge.save/

[...]

      6 Sym.Ops. (no q -> -q+G )

[...]

     Mode symmetry, C_3v (3m)   point group:

[...]

     Representation #   1 mode #   1

[...]

     freq (   1-   2) =         39.7  [cm-1]   --> E    L_3
     freq (   3-   3) =         87.7  [cm-1]   --> A_1  L_1
     freq (   4-   4) =        282.7  [cm-1]   --> A_1  L_1
     freq (   5-   6) =        283.3  [cm-1]   --> E    L_3

[...]

     Mode symmetry, C_3v (3m)   point group:

     freq (   1-   2) =         55.0  [cm-1]   --> E    L_3
     freq (   3-   3) =        164.7  [cm-1]   --> A_1  L_1
     freq (   4-   4) =        261.8  [cm-1]   --> A_1  L_1
     freq (   5-   6) =        278.5  [cm-1]   --> E    L_3

[...]

     Mode symmetry, C_4v (4mm)  point group:

[...]

     freq (   1-   2) =         53.5  [cm-1]   --> E    G_5 D_5
     freq (   3-   3) =         90.3  [cm-1]   --> A_1  G_1 D_1
     freq (   4-   5) =        275.5  [cm-1]   --> E    G_5 D_5
     freq (   6-   6) =        287.4  [cm-1]   --> B_2  G_4 D_2'

[...]

     Mode symmetry, C_s (m)     point group:

[...]

     freq (   1-   1) =         64.4  [cm-1]   --> A''
     freq (   2-   2) =         79.4  [cm-1]   --> A'
     freq (   3-   3) =        138.4  [cm-1]   --> A'
     freq (   4-   4) =        260.1  [cm-1]   --> A'
     freq (   5-   5) =        269.9  [cm-1]   --> A''
     freq (   6-   6) =        277.4  [cm-1]   --> A'

[...]

     Mode symmetry, C_2v (mm2)  point group:

[...]

     freq (   1-   1) =         57.9  [cm-1]   --> B_1  D_3  S_3
     freq (   2-   2) =         77.4  [cm-1]   --> B_2  D_4  S_4
     freq (   3-   3) =        118.7  [cm-1]   --> A_1  D_1  S_1
     freq (   4-   4) =        261.0  [cm-1]   --> B_2  D_4  S_4
     freq (   5-   5) =        277.4  [cm-1]   --> A_2  D_2  S_2
     freq (   6-   6) =        279.1  [cm-1]   --> A_1  D_1  S_1

[...]

     Mode symmetry, C_4v (4mm)  point group:

     freq (   1-   2) =         70.8  [cm-1]   --> E    G_5 D_5
     freq (   3-   3) =        171.2  [cm-1]   --> A_1  G_1 D_1
     freq (   4-   5) =        263.6  [cm-1]   --> E    G_5 D_5
     freq (   6-   6) =        269.8  [cm-1]   --> B_2  G_4 D_2'

[...]

     Mode symmetry, C_s (m)     point group:

     freq (   1-   1) =         72.3  [cm-1]   --> A''
     freq (   2-   2) =         93.4  [cm-1]   --> A'
     freq (   3-   3) =        192.1  [cm-1]   --> A'
     freq (   4-   4) =        235.2  [cm-1]   --> A'
     freq (   5-   5) =        262.8  [cm-1]   --> A''
     freq (   6-   6) =        268.5  [cm-1]   --> A'

[...]

     Mode symmetry, C_2v (mm2)  point group:

     freq (   1-   1) =         75.1  [cm-1]   --> B_1  D_3  S_3
     freq (   2-   2) =        109.4  [cm-1]   --> B_2  D_4  S_4
     freq (   3-   3) =        190.1  [cm-1]   --> A_1  D_1  S_1
     freq (   4-   4) =        212.5  [cm-1]   --> B_2  D_4  S_4
     freq (   5-   5) =        264.1  [cm-1]   --> A_2  D_2  S_2
     freq (   6-   6) =        274.2  [cm-1]   --> A_1  D_1  S_1

[...]

     17 Sym.Ops. (with q -> -q+G )

[...]

     Representation #   6 mode #   6

[...]

     Calculation of q =   -0.3333333  -1.0000000   0.0000000

     Title:
     phonon

     bravais-lattice index     =            2
     lattice parameter (alat)  =      10.7466  a.u.
     unit-cell volume          =     310.2790 (a.u.)^3
     number of atoms/cell      =            2
     number of atomic types    =            1
     number of electrons       =         8.00
     number of Kohn-Sham states=            8
     kinetic-energy cutoff     =      66.0000  Ry
     charge density cutoff     =     264.0000  Ry
     Exchange-correlation= PBESOL
                           (   1   4  10   8   0   0   0)

[...]

     atomic species   valence    mass     pseudopotential
        Ge             4.00    72.64000     Ge( 1.00)

     48 Sym. Ops., with inversion, found

[...]

     site n.     atom                  positions (alat units)
         1           Ge  tau(   1) = (   0.0000000   0.0000000   0.0000000  )
         2           Ge  tau(   2) = (  -0.2500000   0.2500000   0.2500000  )

[...]

     Number of k-points >= 100: set verbosity='high' to print them.

     The potential is recalculated from file :
     ./_ph0/ge.q_16/ge.save/charge-density

     Starting wfcs are    8 atomic wfcs
     Checking if some PAW data can be deallocated...

     Band Structure Calculation
     Davidson diagonalization with overlap

     ethr =  1.25E-10,  avg # of iterations = 15.0

     End of band structure calculation

     Number of k-points >= 100: set verbosity='high' to print the bands.

     the Fermi energy is     5.5827 ev

     Writing output data file ./_ph0/ge.q_16/ge.save/

     phonon

     bravais-lattice index     =            2
     lattice parameter (alat)  =      10.7466  a.u.
     unit-cell volume          =     310.2790 (a.u.)^3
     number of atoms/cell      =            2
     number of atomic types    =            1
     kinetic-energy cut-off    =      66.0000  Ry
     charge density cut-off    =     264.0000  Ry
     convergence threshold     =      1.0E-22
     beta                      =       0.7000
     number of iterations used =            4
     Exchange-correlation= PBESOL
                           (   1   4  10   8   0   0   0)

     celldm(1)=   10.74659  celldm(2)=    0.00000  celldm(3)=    0.00000
     celldm(4)=    0.00000  celldm(5)=    0.00000  celldm(6)=    0.00000

     crystal axes: (cart. coord. in units of alat)
               a(1) = ( -0.5000  0.0000  0.5000 )
               a(2) = (  0.0000  0.5000  0.5000 )
               a(3) = ( -0.5000  0.5000  0.0000 )

     reciprocal axes: (cart. coord. in units 2 pi/alat)
               b(1) = ( -1.0000 -1.0000  1.0000 )
               b(2) = (  1.0000  1.0000  1.0000 )
               b(3) = ( -1.0000  1.0000 -1.0000 )

     Atoms inside the unit cell:

     Cartesian axes

     site n.  atom      mass           positions (alat units)
        1     Ge  72.6400   tau(    1) = (    0.00000    0.00000    0.00000  )
        2     Ge  72.6400   tau(    2) = (   -0.25000    0.25000    0.25000  )

     Computing dynamical matrix for
                    q = (  -0.3333333  -1.0000000   0.0000000 )

      4 Sym.Ops. (no q -> -q+G )

     G cutoff =  772.2996  (  22419 G-vectors)     FFT grid: ( 40, 40, 40)

     number of k points=  2320  Gaussian smearing, width (Ry)=  0.0200

     PseudoPot. # 1 for Ge read from file:
     /scratch1/fanchem/Ge/pp/Ge.pbesol-n-kjpaw_psl.1.0.0.UPF
     MD5 check sum: ba6169c2b85c6e6c9360c21392c70c8c
     Pseudo is Projector augmented-wave + core cor, Zval =  4.0
     Generated using "atomic" code by A. Dal Corso v.6.3
     Shape of augmentation charge: PSQ
     Using radial grid of 1207 points,  4 beta functions with:
                l(1) =   0
                l(2) =   0
                l(3) =   1
                l(4) =   1
     Q(r) pseudized with 0 coefficients

     Atomic displacements:
     There are    3 irreducible representations

[...]

     Representation     3      2 modes -  To be done

     Alpha used in Ewald sum =   2.8000

[...]

     Representation #   3 modes #   5   6

     Self-consistent Calculation

[...]

      thresh= 1.454E-12 alpha_mix =  0.700 |ddv_scf|^2 =  2.736E-23

     End of self-consistent calculation

     Convergence has been achieved

     Number of q in the star =   12
     List of q in the star:
          1  -0.333333333  -1.000000000   0.000000000
          2   0.000000000  -1.000000000  -0.333333333
          3   0.000000000  -1.000000000   0.333333333
          4   0.333333333  -1.000000000   0.000000000
          5  -1.000000000   0.000000000  -0.333333333
          6   1.000000000   0.000000000   0.333333333
          7   0.000000000   0.333333333   1.000000000
          8   0.000000000  -0.333333333  -1.000000000
          9  -1.000000000  -0.333333333   0.000000000
         10   1.000000000   0.333333333   0.000000000
         11  -0.333333333   0.000000000   1.000000000
         12   0.333333333   0.000000000   1.000000000

     Diagonalizing the dynamical matrix

     q = (   -0.333333333  -1.000000000   0.000000000 )

     freq (    1) =       2.827622 [THz] =      94.319324 [cm-1]
     freq (    2) =       2.827622 [THz] =      94.319324 [cm-1]
     freq (    3) =       6.157001 [THz] =     205.375460 [cm-1]
     freq (    4) =       6.157001 [THz] =     205.375460 [cm-1]
     freq (    5) =       7.922237 [THz] =     264.257395 [cm-1]
     freq (    6) =       7.922237 [THz] =     264.257395 [cm-1]

     General routines

     Parallel routines

     INITIALIZATION:

     DYNAMICAL MATRIX:

      General routines

   This run was terminated on:  10:49:47  16Oct2022

   JOB DONE.