     Program PWSCF v.6.6 starts on  3Feb2022 at 15:28:19

     K-points division:     npool     =      24
     Fft bands division:     nmany     =       1
     Waiting for input...
     Reading input from standard input
Warning: card &CELL ignored
Warning: card PRESS_CONV_THR=0.1 ignored
Warning: card / ignored

     Current dimensions of program PWSCF are:
     Max number of different atomic species (ntypx) = 10
     Max number of k-points (npk) =  40000
     Max angular momentum in pseudopotentials (lmaxx) =  3

     Subspace diagonalization in iterative solution of the eigenvalue problem:
     a serial algorithm will be used

     bravais-lattice index     =            2
     lattice parameter (alat)  =      10.7466  a.u.
     unit-cell volume          =     310.2790 (a.u.)^3
     number of atoms/cell      =            2
     number of atomic types    =            1
     number of electrons       =         8.00
     number of Kohn-Sham states=            8
     kinetic-energy cutoff     =      66.0000  Ry
     charge density cutoff     =     264.0000  Ry
     convergence threshold     =      1.0E-10
     mixing beta               =       0.7000
     number of iterations used =            8  plain     mixing
     Exchange-correlation= SLA PW PSX PSC
                           (   1   4  10   8   0   0   0)

     celldm(1)=  10.746593  celldm(2)=   0.000000  celldm(3)=   0.000000
     celldm(4)=   0.000000  celldm(5)=   0.000000  celldm(6)=   0.000000

     crystal axes: (cart. coord. in units of alat)
               a(1) = (  -0.500000   0.000000   0.500000 )
               a(2) = (   0.000000   0.500000   0.500000 )
               a(3) = (  -0.500000   0.500000   0.000000 )

     reciprocal axes: (cart. coord. in units 2 pi/alat)
               b(1) = ( -1.000000 -1.000000  1.000000 )
               b(2) = (  1.000000  1.000000  1.000000 )
               b(3) = ( -1.000000  1.000000 -1.000000 )

     PseudoPot. # 1 for Ge read from file:
     /scratch1/fanchem/Ge/pp/Ge.pbesol-n-kjpaw_psl.1.0.0.UPF
     MD5 check sum: 745875865497f3c829262459a163315c
     Pseudo is Projector augmented-wave + core cor, Zval =  4.0
     Generated using "atomic" code by A. Dal Corso v.6.6
     Shape of augmentation charge: PSQ
     Using radial grid of 1207 points,  4 beta functions with:
                l(1) =   0
                l(2) =   0
                l(3) =   1
                l(4) =   1
     Q(r) pseudized with 0 coefficients

     atomic species   valence    mass     pseudopotential
        Ge             4.00    72.64000     Ge( 1.00)

     48 Sym. Ops., with inversion, found (24 have fractional translation)

                                    s                        frac. trans.

      isym =  1     identity

 cryst.   s( 1) = (     1          0          0      )
                  (     0          1          0      )
                  (     0          0          1      )

 cart.    s( 1) = (  1.0000000  0.0000000  0.0000000 )
                  (  0.0000000  1.0000000  0.0000000 )
                  (  0.0000000  0.0000000  1.0000000 )

      isym =  2     180 deg rotation - cart. axis [0,0,1]

[...]

 cryst.   s( 4) = (     0         -1          1      )
                  (     0         -1          0      )
                  (     1         -1          0      )

 cart.    s( 4) = (  1.0000000  0.0000000  0.0000000 )
                  (  0.0000000 -1.0000000  0.0000000 )
                  (  0.0000000  0.0000000 -1.0000000 )

[...]

 cryst.   s( 5) = (     0         -1          0      )    f =( -0.2500000 )
                  (    -1          0          0      )       ( -0.2500000 )
                  (     0          0         -1      )       ( -0.2500000 )

 cart.    s( 5) = (  0.0000000  1.0000000  0.0000000 )    f =(  0.2500000 )
                  (  1.0000000  0.0000000  0.0000000 )       ( -0.2500000 )
                  (  0.0000000  0.0000000 -1.0000000 )       ( -0.2500000 )

[...]

 cryst.   s( 9) = (    -1          0          0      )    f =( -0.2500000 )
                  (     0          0         -1      )       ( -0.2500000 )
                  (     0         -1          0      )       ( -0.2500000 )

 cart.    s( 9) = (  0.0000000  0.0000000  1.0000000 )    f =(  0.2500000 )
                  (  0.0000000 -1.0000000  0.0000000 )       ( -0.2500000 )
                  (  1.0000000  0.0000000  0.0000000 )       ( -0.2500000 )

[...]

 cryst.   s(10) = (     1          0          0      )    f =( -0.2500000 )
                  (     1         -1          0      )       ( -0.2500000 )
                  (     1          0         -1      )       ( -0.2500000 )

 cart.    s(10) = (  0.0000000  0.0000000 -1.0000000 )    f =(  0.2500000 )
                  (  0.0000000 -1.0000000  0.0000000 )       ( -0.2500000 )
                  ( -1.0000000  0.0000000  0.0000000 )       ( -0.2500000 )

[...]

 cryst.   s(17) = (    -1          0          1      )
                  (    -1          1          0      )
                  (    -1          0          0      )

 cart.    s(17) = (  0.0000000  1.0000000  0.0000000 )
                  (  0.0000000  0.0000000  1.0000000 )
                  (  1.0000000  0.0000000  0.0000000 )

[...]

      isym = 24     120 deg rotation - cart. axis [-1,-1,1]

[...]

      isym = 25     inversion

[...]

      isym = 26     inv. 180 deg rotation - cart. axis [0,0,1]

[...]

 cryst.   s(40) = (    -1          1          0      )
                  (    -1          0          1      )
                  (    -1          0          0      )

 cart.    s(40) = ( -1.0000000  0.0000000  0.0000000 )
                  (  0.0000000  0.0000000  1.0000000 )
                  (  0.0000000 -1.0000000  0.0000000 )

[...]

      isym = 48     inv. 120 deg rotation - cart. axis [-1,-1,1]

 cryst.   s(48) = (    -1          1          0      )    f =( -0.2500000 )
                  (     0          1         -1      )       ( -0.2500000 )
                  (     0          1          0      )       ( -0.2500000 )

 cart.    s(48) = (  0.0000000  0.0000000  1.0000000 )    f =(  0.2500000 )
                  ( -1.0000000  0.0000000  0.0000000 )       ( -0.2500000 )
                  (  0.0000000  1.0000000  0.0000000 )       ( -0.2500000 )

     point group O_h (m-3m)
     there are 10 classes
     the character table:

       E     8C3   3C2   6C4   6C2'  i     8S6   3s_h  6S4   6s_d
A_1g   1.00  1.00  1.00  1.00  1.00  1.00  1.00  1.00  1.00  1.00
A_2g   1.00  1.00  1.00 -1.00 -1.00  1.00  1.00  1.00 -1.00 -1.00
E_g    2.00 -1.00  2.00  0.00  0.00  2.00 -1.00  2.00  0.00  0.00
T_1g   3.00  0.00 -1.00  1.00 -1.00  3.00  0.00 -1.00  1.00 -1.00
T_2g   3.00  0.00 -1.00 -1.00  1.00  3.00  0.00 -1.00 -1.00  1.00
A_1u   1.00  1.00  1.00  1.00  1.00 -1.00 -1.00 -1.00 -1.00 -1.00
A_2u   1.00  1.00  1.00 -1.00 -1.00 -1.00 -1.00 -1.00  1.00  1.00
E_u    2.00 -1.00  2.00  0.00  0.00 -2.00  1.00 -2.00  0.00  0.00
T_1u   3.00  0.00 -1.00  1.00 -1.00 -3.00  0.00  1.00 -1.00  1.00
T_2u   3.00  0.00 -1.00 -1.00  1.00 -3.00  0.00  1.00  1.00 -1.00

     the symmetry operations in each class and the name of the first element:

     E        1
          identity
     8C3     17   19   20   18   24   21   22   23
          120 deg rotation - cart. axis [-1,-1,-1]
     3C2      2    4    3
          180 deg rotation - cart. axis [0,0,1]
     6C4      7    8   15   16   12   11
           90 deg rotation - cart. axis [0,0,-1]
     6C2'     5    6   14   13   10    9
          180 deg rotation - cart. axis [1,1,0]
     i       25
          inversion
     8S6     41   43   44   42   48   45   46   47
          inv. 120 deg rotation - cart. axis [-1,-1,-1]
     3s_h    26   28   27
          inv. 180 deg rotation - cart. axis [0,0,1]
     6S4     31   32   39   40   36   35
          inv.  90 deg rotation - cart. axis [0,0,-1]
     6s_d    29   30   38   37   34   33
          inv. 180 deg rotation - cart. axis [1,1,0]

   Cartesian axes

     site n.     atom                  positions (alat units)
         1           Ge  tau(   1) = (   0.0000000   0.0000000   0.0000000  )
         2           Ge  tau(   2) = (  -0.2500000   0.2500000   0.2500000  )

   Crystallographic axes

     site n.     atom                  positions (cryst. coord.)
         1           Ge  tau(   1) = (  0.0000000  0.0000000  0.0000000  )
         2           Ge  tau(   2) = (  0.2500000  0.2500000  0.2500000  )

     number of k points=   145  Gaussian smearing, width (Ry)=  0.0200
                       cart. coord. in units 2pi/alat
        k(    1) = (   0.0000000   0.0000000   0.0000000), wk =   0.0004883
        k(    2) = (  -0.0625000   0.0625000  -0.0625000), wk =   0.0039062
        k(    3) = (  -0.1250000   0.1250000  -0.1250000), wk =   0.0039062
        k(    4) = (  -0.1875000   0.1875000  -0.1875000), wk =   0.0039062
        k(    5) = (  -0.2500000   0.2500000  -0.2500000), wk =   0.0039062
        k(    6) = (  -0.3125000   0.3125000  -0.3125000), wk =   0.0039062
        k(    7) = (  -0.3750000   0.3750000  -0.3750000), wk =   0.0039062
        k(    8) = (  -0.4375000   0.4375000  -0.4375000), wk =   0.0039062
        k(    9) = (   0.5000000  -0.5000000   0.5000000), wk =   0.0019531
        k(   10) = (   0.0000000   0.1250000   0.0000000), wk =   0.0029297
        k(   11) = (  -0.0625000   0.1875000  -0.0625000), wk =   0.0117188
        k(   12) = (  -0.1250000   0.2500000  -0.1250000), wk =   0.0117188
        k(   13) = (  -0.1875000   0.3125000  -0.1875000), wk =   0.0117188
        k(   14) = (  -0.2500000   0.3750000  -0.2500000), wk =   0.0117188
        k(   15) = (  -0.3125000   0.4375000  -0.3125000), wk =   0.0117188
        k(   16) = (  -0.3750000   0.5000000  -0.3750000), wk =   0.0117188
        k(   17) = (   0.5625000  -0.4375000   0.5625000), wk =   0.0117188
        k(   18) = (   0.5000000  -0.3750000   0.5000000), wk =   0.0117188
        k(   19) = (   0.4375000  -0.3125000   0.4375000), wk =   0.0117188
        k(   20) = (   0.3750000  -0.2500000   0.3750000), wk =   0.0117188
        k(   21) = (   0.3125000  -0.1875000   0.3125000), wk =   0.0117188
        k(   22) = (   0.2500000  -0.1250000   0.2500000), wk =   0.0117188
        k(   23) = (   0.1875000  -0.0625000   0.1875000), wk =   0.0117188
        k(   24) = (   0.1250000   0.0000000   0.1250000), wk =   0.0058594
        k(   25) = (   0.0000000   0.2500000   0.0000000), wk =   0.0029297
        k(   26) = (  -0.0625000   0.3125000  -0.0625000), wk =   0.0117188
        k(   27) = (  -0.1250000   0.3750000  -0.1250000), wk =   0.0117188
        k(   28) = (  -0.1875000   0.4375000  -0.1875000), wk =   0.0117188
        k(   29) = (  -0.2500000   0.5000000  -0.2500000), wk =   0.0117188
        k(   30) = (  -0.3125000   0.5625000  -0.3125000), wk =   0.0117188
        k(   31) = (   0.6250000  -0.3750000   0.6250000), wk =   0.0117188
        k(   32) = (   0.5625000  -0.3125000   0.5625000), wk =   0.0117188
        k(   33) = (   0.5000000  -0.2500000   0.5000000), wk =   0.0117188
        k(   34) = (   0.4375000  -0.1875000   0.4375000), wk =   0.0117188
        k(   35) = (   0.3750000  -0.1250000   0.3750000), wk =   0.0117188
        k(   36) = (   0.3125000  -0.0625000   0.3125000), wk =   0.0117188
        k(   37) = (   0.2500000   0.0000000   0.2500000), wk =   0.0058594
        k(   38) = (   0.0000000   0.3750000   0.0000000), wk =   0.0029297
        k(   39) = (  -0.0625000   0.4375000  -0.0625000), wk =   0.0117188
        k(   40) = (  -0.1250000   0.5000000  -0.1250000), wk =   0.0117188
        k(   41) = (  -0.1875000   0.5625000  -0.1875000), wk =   0.0117188
        k(   42) = (  -0.2500000   0.6250000  -0.2500000), wk =   0.0117188
        k(   43) = (   0.6875000  -0.3125000   0.6875000), wk =   0.0117188
        k(   44) = (   0.6250000  -0.2500000   0.6250000), wk =   0.0117188
        k(   45) = (   0.5625000  -0.1875000   0.5625000), wk =   0.0117188
        k(   46) = (   0.5000000  -0.1250000   0.5000000), wk =   0.0117188
        k(   47) = (   0.4375000  -0.0625000   0.4375000), wk =   0.0117188
        k(   48) = (   0.3750000   0.0000000   0.3750000), wk =   0.0058594
        k(   49) = (   0.0000000   0.5000000   0.0000000), wk =   0.0029297
        k(   50) = (  -0.0625000   0.5625000  -0.0625000), wk =   0.0117188
        k(   51) = (  -0.1250000   0.6250000  -0.1250000), wk =   0.0117188
        k(   52) = (  -0.1875000   0.6875000  -0.1875000), wk =   0.0117188
        k(   53) = (   0.7500000  -0.2500000   0.7500000), wk =   0.0117188
        k(   54) = (   0.6875000  -0.1875000   0.6875000), wk =   0.0117188
        k(   55) = (   0.6250000  -0.1250000   0.6250000), wk =   0.0117188
        k(   56) = (   0.5625000  -0.0625000   0.5625000), wk =   0.0117188
        k(   57) = (   0.5000000   0.0000000   0.5000000), wk =   0.0058594
        k(   58) = (   0.0000000   0.6250000   0.0000000), wk =   0.0029297
        k(   59) = (  -0.0625000   0.6875000  -0.0625000), wk =   0.0117188
        k(   60) = (  -0.1250000   0.7500000  -0.1250000), wk =   0.0117188
[...]
        k(  131) = (   0.6250000  -0.1250000   0.8750000), wk =   0.0234375
        k(  132) = (   0.5625000  -0.0625000   0.8125000), wk =   0.0234375
        k(  133) = (   0.5000000   0.0000000   0.7500000), wk =   0.0117188
        k(  134) = (   0.7500000  -0.1250000   1.0000000), wk =   0.0117188
        k(  135) = (   0.6875000  -0.0625000   0.9375000), wk =   0.0234375
        k(  136) = (   0.6250000   0.0000000   0.8750000), wk =   0.0117188
        k(  137) = (  -0.2500000  -1.0000000   0.0000000), wk =   0.0058594
        k(  138) = (   0.6250000  -0.2500000   1.0000000), wk =   0.0117188
        k(  139) = (   0.5625000  -0.1875000   0.9375000), wk =   0.0234375
        k(  140) = (   0.5000000  -0.1250000   0.8750000), wk =   0.0117188
        k(  141) = (   0.6250000  -0.1250000   1.0000000), wk =   0.0117188
        k(  142) = (   0.5625000  -0.0625000   0.9375000), wk =   0.0234375
        k(  143) = (   0.5000000   0.0000000   0.8750000), wk =   0.0117188
        k(  144) = (  -0.3750000  -1.0000000   0.0000000), wk =   0.0058594
        k(  145) = (  -0.5000000  -1.0000000   0.0000000), wk =   0.0029297

                       cryst. coord.
        k(    1) = (   0.0000000   0.0000000   0.0000000), wk =   0.0004883
        k(    2) = (   0.0000000   0.0000000   0.0625000), wk =   0.0039062
        k(    3) = (   0.0000000   0.0000000   0.1250000), wk =   0.0039062
        k(    4) = (   0.0000000   0.0000000   0.1875000), wk =   0.0039062
        k(    5) = (   0.0000000   0.0000000   0.2500000), wk =   0.0039062
        k(    6) = (   0.0000000   0.0000000   0.3125000), wk =   0.0039062
        k(    7) = (   0.0000000   0.0000000   0.3750000), wk =   0.0039062
        k(    8) = (   0.0000000   0.0000000   0.4375000), wk =   0.0039062
        k(    9) = (   0.0000000   0.0000000  -0.5000000), wk =   0.0019531
        k(   10) = (   0.0000000   0.0625000   0.0625000), wk =   0.0029297
        k(   11) = (   0.0000000   0.0625000   0.1250000), wk =   0.0117188
        k(   12) = (   0.0000000   0.0625000   0.1875000), wk =   0.0117188
        k(   13) = (   0.0000000   0.0625000   0.2500000), wk =   0.0117188
        k(   14) = (   0.0000000   0.0625000   0.3125000), wk =   0.0117188
        k(   15) = (   0.0000000   0.0625000   0.3750000), wk =   0.0117188
        k(   16) = (   0.0000000   0.0625000   0.4375000), wk =   0.0117188
        k(   17) = (   0.0000000   0.0625000  -0.5000000), wk =   0.0117188
        k(   18) = (   0.0000000   0.0625000  -0.4375000), wk =   0.0117188
        k(   19) = (   0.0000000   0.0625000  -0.3750000), wk =   0.0117188
        k(   20) = (   0.0000000   0.0625000  -0.3125000), wk =   0.0117188
        k(   21) = (   0.0000000   0.0625000  -0.2500000), wk =   0.0117188
        k(   22) = (   0.0000000   0.0625000  -0.1875000), wk =   0.0117188
        k(   23) = (   0.0000000   0.0625000  -0.1250000), wk =   0.0117188
        k(   24) = (   0.0000000   0.0625000  -0.0625000), wk =   0.0058594
        k(   25) = (   0.0000000   0.1250000   0.1250000), wk =   0.0029297
        k(   26) = (   0.0000000   0.1250000   0.1875000), wk =   0.0117188
        k(   27) = (   0.0000000   0.1250000   0.2500000), wk =   0.0117188
        k(   28) = (   0.0000000   0.1250000   0.3125000), wk =   0.0117188
        k(   29) = (   0.0000000   0.1250000   0.3750000), wk =   0.0117188
        k(   30) = (   0.0000000   0.1250000   0.4375000), wk =   0.0117188
        k(   31) = (   0.0000000   0.1250000  -0.5000000), wk =   0.0117188
        k(   32) = (   0.0000000   0.1250000  -0.4375000), wk =   0.0117188
        k(   33) = (   0.0000000   0.1250000  -0.3750000), wk =   0.0117188
        k(   34) = (   0.0000000   0.1250000  -0.3125000), wk =   0.0117188
        k(   35) = (   0.0000000   0.1250000  -0.2500000), wk =   0.0117188
        k(   36) = (   0.0000000   0.1250000  -0.1875000), wk =   0.0117188
        k(   37) = (   0.0000000   0.1250000  -0.1250000), wk =   0.0058594
        k(   38) = (   0.0000000   0.1875000   0.1875000), wk =   0.0029297
        k(   39) = (   0.0000000   0.1875000   0.2500000), wk =   0.0117188
        k(   40) = (   0.0000000   0.1875000   0.3125000), wk =   0.0117188
        k(   41) = (   0.0000000   0.1875000   0.3750000), wk =   0.0117188
        k(   42) = (   0.0000000   0.1875000   0.4375000), wk =   0.0117188
        k(   43) = (   0.0000000   0.1875000  -0.5000000), wk =   0.0117188
        k(   44) = (   0.0000000   0.1875000  -0.4375000), wk =   0.0117188
        k(   45) = (   0.0000000   0.1875000  -0.3750000), wk =   0.0117188
        k(   46) = (   0.0000000   0.1875000  -0.3125000), wk =   0.0117188
        k(   47) = (   0.0000000   0.1875000  -0.2500000), wk =   0.0117188
        k(   48) = (   0.0000000   0.1875000  -0.1875000), wk =   0.0058594
        k(   49) = (   0.0000000   0.2500000   0.2500000), wk =   0.0029297
        k(   50) = (   0.0000000   0.2500000   0.3125000), wk =   0.0117188
        k(   51) = (   0.0000000   0.2500000   0.3750000), wk =   0.0117188
        k(   52) = (   0.0000000   0.2500000   0.4375000), wk =   0.0117188
        k(   53) = (   0.0000000   0.2500000  -0.5000000), wk =   0.0117188
        k(   54) = (   0.0000000   0.2500000  -0.4375000), wk =   0.0117188
        k(   55) = (   0.0000000   0.2500000  -0.3750000), wk =   0.0117188
        k(   56) = (   0.0000000   0.2500000  -0.3125000), wk =   0.0117188
        k(   57) = (   0.0000000   0.2500000  -0.2500000), wk =   0.0058594
        k(   58) = (   0.0000000   0.3125000   0.3125000), wk =   0.0029297
        k(   59) = (   0.0000000   0.3125000   0.3750000), wk =   0.0117188
        k(   60) = (   0.0000000   0.3125000   0.4375000), wk =   0.0117188
[...]
        k(  131) = (   0.1250000   0.3750000  -0.3750000), wk =   0.0234375
        k(  132) = (   0.1250000   0.3750000  -0.3125000), wk =   0.0234375
        k(  133) = (   0.1250000   0.3750000  -0.2500000), wk =   0.0117188
        k(  134) = (   0.1250000   0.4375000  -0.4375000), wk =   0.0117188
        k(  135) = (   0.1250000   0.4375000  -0.3750000), wk =   0.0234375
        k(  136) = (   0.1250000   0.4375000  -0.3125000), wk =   0.0117188
        k(  137) = (   0.1250000  -0.5000000  -0.3750000), wk =   0.0058594
        k(  138) = (   0.1875000   0.3750000  -0.4375000), wk =   0.0117188
        k(  139) = (   0.1875000   0.3750000  -0.3750000), wk =   0.0234375
        k(  140) = (   0.1875000   0.3750000  -0.3125000), wk =   0.0117188
        k(  141) = (   0.1875000   0.4375000  -0.3750000), wk =   0.0117188
        k(  142) = (   0.1875000   0.4375000  -0.3125000), wk =   0.0234375
        k(  143) = (   0.1875000   0.4375000  -0.2500000), wk =   0.0117188
        k(  144) = (   0.1875000  -0.5000000  -0.3125000), wk =   0.0058594
        k(  145) = (   0.2500000  -0.5000000  -0.2500000), wk =   0.0029297

     Initial potential from superposition of free atoms

     starting charge    7.99858, renormalised to    8.00000
     Starting wfcs are    8 randomized atomic wfcs
     Checking if some PAW data can be deallocated...

     Self-consistent Calculation

     iteration #  1     ecut=    66.00 Ry     beta= 0.70
     Davidson diagonalization with overlap
     ethr =  1.00E-02,  avg # of iterations =  3.3

     Threshold (ethr) on eigenvalues was too large:
     Diagonalizing with lowered threshold

     Davidson diagonalization with overlap
     ethr =  3.60E-04,  avg # of iterations =  2.0

     total energy              =    -322.02047288 Ry
     estimated scf accuracy    <       0.02943786 Ry

[...]

     total energy              =    -322.02125068 Ry
     estimated scf accuracy    <          1.5E-09 Ry

     iteration #  6     ecut=    66.00 Ry     beta= 0.70
     Davidson diagonalization with overlap
     ethr =  1.93E-11,  avg # of iterations =  2.1

     End of self-consistent calculation

          k = 0.0000 0.0000 0.0000 (  2741 PWs)   bands (ev):

    -7.1382   5.4488   5.5037   5.5037   5.5037   8.0513   8.0513   8.0513

     occupation numbers
     1.0000   0.7566   0.6591   0.6591   0.6591   0.0000   0.0000   0.0000

          k =-0.0625 0.0625-0.0625 (  2758 PWs)   bands (ev):

[...]

          k = 0.5000 0.0000 0.8750 (  2800 PWs)   bands (ev):

[...]

          k =-0.5000-1.0000 0.0000 (  2780 PWs)   bands (ev):

    -3.2354  -3.2354   1.6510   1.6510   9.7989   9.7989  10.1501  10.1501

     occupation numbers
     1.0000   1.0000   1.0000   1.0000   0.0000   0.0000   0.0000   0.0000

     the Fermi energy is     5.5826 ev

!    total energy              =    -322.02125068 Ry

     total all-electron energy =     -8389.902633 Ry
     estimated scf accuracy    <          2.9E-11 Ry
     smearing contrib. (-TS)   =      -0.00015561 Ry
     internal energy E=F+TS    =    -322.02109507 Ry

     The total energy is F=E-TS. E is the sum of the following terms:
     one-electron contribution =       5.43061993 Ry
     hartree contribution      =       1.15589221 Ry
     xc contribution           =     -13.17098481 Ry
     ewald contribution        =     -16.04020297 Ry
     one-center paw contrib.   =    -299.39641943 Ry
      -> PAW hartree energy AE =       4.38562591 Ry
      -> PAW hartree energy PS =      -4.38108038 Ry
      -> PAW xc energy AE      =    -155.84117961 Ry
      -> PAW xc energy PS      =       6.13842437 Ry
      -> total E_H with PAW    =       1.16043774 Ry
      -> total E_XC with PAW   =    -162.87374005 Ry

     convergence has been achieved in   6 iterations

     Forces acting on atoms (cartesian axes, Ry/au):

     atom    1 type  1   force =     0.00000000    0.00000000    0.00000000
     atom    2 type  1   force =     0.00000000    0.00000000    0.00000000
     The non-local contrib.  to forces
     atom    1 type  1   force =    -0.00000000   -0.00000000   -0.00000000
     atom    2 type  1   force =    -0.00000000   -0.00000000    0.00000000
     The ionic contribution  to forces
     atom    1 type  1   force =     0.00000000   -0.00000000   -0.00000000
     atom    2 type  1   force =    -0.00000000    0.00000000    0.00000000
     The local contribution  to forces
     atom    1 type  1   force =    -0.00000000    0.00000000    0.00000000
     atom    2 type  1   force =     0.00000000   -0.00000000   -0.00000000
     The core correction contribution to forces
     atom    1 type  1   force =    -0.00000000   -0.00000000    0.00000000
     atom    2 type  1   force =    -0.00000000    0.00000000    0.00000000
     The Hubbard contrib.    to forces
     atom    1 type  1   force =     0.00000000    0.00000000    0.00000000
     atom    2 type  1   force =     0.00000000    0.00000000    0.00000000
     The SCF correction term to forces
     atom    1 type  1   force =     0.00000000    0.00000000   -0.00000000
     atom    2 type  1   force =    -0.00000000   -0.00000000    0.00000000

     Total force =     0.000000     Total SCF correction =     0.000000

     Computing stress (Cartesian axis) and pressure

          total   stress  (Ry/bohr**3)                   (kbar)     P=        0.07
   0.00000050   0.00000000   0.00000000            0.07        0.00        0.00
   0.00000000   0.00000050   0.00000000            0.00        0.07        0.00
   0.00000000  -0.00000000   0.00000050            0.00       -0.00        0.07

     kinetic stress (kbar)   1849.46      0.00     -0.00
                                0.00   1849.46     -0.00
                               -0.00     -0.00   1849.46

     local   stress (kbar)    840.79      0.00      0.00
                                0.00    840.79      0.00
                                0.00      0.00    840.79

     nonloc. stress (kbar)    774.84      0.00      0.00
                                0.00    774.84     -0.00
                                0.00     -0.00    774.84

     hartree stress (kbar)    182.67      0.00     -0.00
                                0.00    182.67     -0.00
                               -0.00     -0.00    182.67

     exc-cor stress (kbar)   2967.18     -0.00     -0.00
                               -0.00   2967.18      0.00
                               -0.00      0.00   2967.18

     corecor stress (kbar)  -4079.96     -0.00     -0.00
                               -0.00  -4079.96      0.00
                               -0.00      0.00  -4079.96

     ewald   stress (kbar)  -2534.92     -0.00     -0.00
                               -0.00  -2534.92      0.00
                               -0.00      0.00  -2534.92

     hubbard stress (kbar)      0.00      0.00      0.00
                                0.00      0.00      0.00
                                0.00      0.00      0.00

     DFT-D   stress (kbar)      0.00      0.00      0.00
                                0.00      0.00      0.00
                                0.00      0.00      0.00

     XDM     stress (kbar)      0.00      0.00      0.00
                                0.00      0.00      0.00
                                0.00      0.00      0.00

     dft-nl  stress (kbar)      0.00      0.00      0.00
                                0.00      0.00      0.00
                                0.00      0.00      0.00

     TS-vdW  stress (kbar)      0.00      0.00      0.00
                                0.00      0.00      0.00
                                0.00      0.00      0.00

     Writing output data file ./ge.save/

     General routines

     Parallel routines

     PAW routines

   This run was terminated on:  15:28:22   3Feb2022

   JOB DONE.