     Program PWSCF v.6.6 starts on 23Jan2022 at 18:55:18

     R & G space division:  proc/nbgrp/npool/nimage =      24
     Fft bands division:     nmany     =       1
     Waiting for input...
     Reading input from standard input
Warning: card &CELL ignored
Warning: card PRESS_CONV_THR=0.1 ignored
Warning: card / ignored

     Current dimensions of program PWSCF are:
     Max number of different atomic species (ntypx) = 10
     Max number of k-points (npk) =  40000
     Max angular momentum in pseudopotentials (lmaxx) =  3

     gamma-point specific algorithms are used

     Message from routine setup:
     using ibrav=0 with symmetry is DISCOURAGED, use correct ibrav instead

     bravais-lattice index     =            0
     lattice parameter (alat)  =      37.9949  a.u.
     unit-cell volume          =   38784.8807 (a.u.)^3
     number of atoms/cell      =          250
     number of atomic types    =            1
     number of electrons       =      1000.00
     number of Kohn-Sham states=          600
     kinetic-energy cutoff     =      66.0000  Ry
     charge density cutoff     =     264.0000  Ry
     convergence threshold     =      1.0E-16
     mixing beta               =       0.7000
     number of iterations used =            8  plain     mixing
     Exchange-correlation= SLA PW PSX PSC
                           (   1   4  10   8   0   0   0)

     celldm(1)=  37.994945  celldm(2)=   0.000000  celldm(3)=   0.000000
     celldm(4)=   0.000000  celldm(5)=   0.000000  celldm(6)=   0.000000

     crystal axes: (cart. coord. in units of alat)
               a(1) = (  -0.707107   0.000000   0.707107 )
               a(2) = (   0.000000   0.707107   0.707107 )
               a(3) = (  -0.707107   0.707107   0.000000 )

     reciprocal axes: (cart. coord. in units 2 pi/alat)
               b(1) = ( -0.707107 -0.707107  0.707107 )
               b(2) = (  0.707107  0.707107  0.707107 )
               b(3) = ( -0.707107  0.707107 -0.707107 )

     PseudoPot. # 1 for Ge read from file:
     /scratch1/fanchem/Ge/pp/Ge.pbesol-n-kjpaw_psl.1.0.0.UPF
     MD5 check sum: 745875865497f3c829262459a163315c
     Pseudo is Projector augmented-wave + core cor, Zval =  4.0
     Generated using "atomic" code by A. Dal Corso v.6.6
     Shape of augmentation charge: PSQ
     Using radial grid of 1207 points,  4 beta functions with:
                l(1) =   0
                l(2) =   0
                l(3) =   1
                l(4) =   1
     Q(r) pseudized with 0 coefficients

     atomic species   valence    mass     pseudopotential
        Ge             4.00   172.60000     Ge( 1.00)

      2 Sym. Ops. (no inversion) found

                                    s                        frac. trans.

      isym =  1     identity

 cryst.   s( 1) = (     1          0          0      )
                  (     0          1          0      )
                  (     0          0          1      )

 cart.    s( 1) = (  1.0000000  0.0000000  0.0000000 )
                  (  0.0000000  1.0000000  0.0000000 )
                  (  0.0000000  0.0000000  1.0000000 )

      isym =  2     inv. 180 deg rotation - cart. axis [1,0,1]

 cryst.   s( 2) = (     1          0          0      )
                  (     0          0          1      )
                  (     0          1          0      )

 cart.    s( 2) = (  0.0000000  0.0000000 -1.0000000 )
                  (  0.0000000  1.0000000  0.0000000 )
                  ( -1.0000000  0.0000000  0.0000000 )

   Cartesian axes

     site n.     atom                  positions (alat units)
         1           Ge  tau(   1) = (   0.0000000  -0.0004974   0.0000000  )
         2           Ge  tau(   2) = (  -0.0707107   0.0712080   0.0707107  )
         3           Ge  tau(   3) = (  -0.1414214   0.0000000   0.1414214  )
         4           Ge  tau(   4) = (  -0.2121320   0.0707107   0.2121320  )
         5           Ge  tau(   5) = (  -0.2828427   0.0000000   0.2828427  )
         6           Ge  tau(   6) = (  -0.3535534   0.0707107   0.3535534  )
         7           Ge  tau(   7) = (  -0.4242641   0.0000000   0.4242641  )
         8           Ge  tau(   8) = (  -0.4949747   0.0707107   0.4949747  )
         9           Ge  tau(   9) = (  -0.5656854   0.0000000   0.5656854  )
        10           Ge  tau(  10) = (  -0.6363961   0.0707107   0.6363961  )
        11           Ge  tau(  11) = (   0.0000000   0.1414214   0.1414214  )
        12           Ge  tau(  12) = (  -0.0707107   0.2121320   0.2121320  )
        13           Ge  tau(  13) = (  -0.1414214   0.1414214   0.2828427  )
        14           Ge  tau(  14) = (  -0.2121320   0.2121320   0.3535534  )
        15           Ge  tau(  15) = (  -0.2828427   0.1414214   0.4242641  )
        16           Ge  tau(  16) = (  -0.3535534   0.2121320   0.4949747  )
        17           Ge  tau(  17) = (  -0.4242641   0.1414214   0.5656854  )
        18           Ge  tau(  18) = (  -0.4949747   0.2121320   0.6363961  )
        19           Ge  tau(  19) = (  -0.5656854   0.1414214   0.7071068  )
        20           Ge  tau(  20) = (  -0.6363961   0.2121320   0.7778175  )
        21           Ge  tau(  21) = (   0.0000000   0.2828427   0.2828427  )
        22           Ge  tau(  22) = (  -0.0707107   0.3535534   0.3535534  )
        23           Ge  tau(  23) = (  -0.1414214   0.2828427   0.4242641  )
        24           Ge  tau(  24) = (  -0.2121320   0.3535534   0.4949747  )
        25           Ge  tau(  25) = (  -0.2828427   0.2828427   0.5656854  )
        26           Ge  tau(  26) = (  -0.3535534   0.3535534   0.6363961  )
        27           Ge  tau(  27) = (  -0.4242641   0.2828427   0.7071068  )
        28           Ge  tau(  28) = (  -0.4949747   0.3535534   0.7778175  )
        29           Ge  tau(  29) = (  -0.5656854   0.2828427   0.8485281  )
        30           Ge  tau(  30) = (  -0.6363961   0.3535534   0.9192388  )
        31           Ge  tau(  31) = (   0.0000000   0.4242641   0.4242641  )
        32           Ge  tau(  32) = (  -0.0707107   0.4949747   0.4949747  )
        33           Ge  tau(  33) = (  -0.1414214   0.4242641   0.5656854  )
        34           Ge  tau(  34) = (  -0.2121320   0.4949747   0.6363961  )
        35           Ge  tau(  35) = (  -0.2828427   0.4242641   0.7071068  )
        36           Ge  tau(  36) = (  -0.3535534   0.4949747   0.7778175  )
        37           Ge  tau(  37) = (  -0.4242641   0.4242641   0.8485281  )
        38           Ge  tau(  38) = (  -0.4949747   0.4949747   0.9192388  )
        39           Ge  tau(  39) = (  -0.5656854   0.4242641   0.9899495  )
        40           Ge  tau(  40) = (  -0.6363961   0.4949747   1.0606602  )
        41           Ge  tau(  41) = (   0.0000000   0.5656854   0.5656854  )
        42           Ge  tau(  42) = (  -0.0707107   0.6363961   0.6363961  )
        43           Ge  tau(  43) = (  -0.1414214   0.5656854   0.7071068  )
        44           Ge  tau(  44) = (  -0.2121320   0.6363961   0.7778175  )
        45           Ge  tau(  45) = (  -0.2828427   0.5656854   0.8485281  )
        46           Ge  tau(  46) = (  -0.3535534   0.6363961   0.9192388  )
        47           Ge  tau(  47) = (  -0.4242641   0.5656854   0.9899495  )
        48           Ge  tau(  48) = (  -0.4949747   0.6363961   1.0606602  )
        49           Ge  tau(  49) = (  -0.5656854   0.5656854   1.1313708  )
        50           Ge  tau(  50) = (  -0.6363961   0.6363961   1.2020815  )
        51           Ge  tau(  51) = (  -0.1414214   0.1414214   0.0000000  )
        52           Ge  tau(  52) = (  -0.2121320   0.2121320   0.0707107  )
        53           Ge  tau(  53) = (  -0.2828427   0.1414214   0.1414214  )
        54           Ge  tau(  54) = (  -0.3535534   0.2121320   0.2121320  )
        55           Ge  tau(  55) = (  -0.4242641   0.1414214   0.2828427  )
        56           Ge  tau(  56) = (  -0.4949747   0.2121320   0.3535534  )
        57           Ge  tau(  57) = (  -0.5656854   0.1414214   0.4242641  )
        58           Ge  tau(  58) = (  -0.6363961   0.2121320   0.4949747  )
        59           Ge  tau(  59) = (  -0.7071068   0.1414214   0.5656854  )
        60           Ge  tau(  60) = (  -0.7778175   0.2121320   0.6363961  )
[...]
       236           Ge  tau( 236) = (  -0.9192388   1.0606602   0.7778175  )
       237           Ge  tau( 237) = (  -0.9899495   0.9899495   0.8485281  )
       238           Ge  tau( 238) = (  -1.0606602   1.0606602   0.9192388  )
       239           Ge  tau( 239) = (  -1.1313708   0.9899495   0.9899495  )
       240           Ge  tau( 240) = (  -1.2020815   1.0606602   1.0606602  )
       241           Ge  tau( 241) = (  -0.5656854   1.1313708   0.5656854  )
       242           Ge  tau( 242) = (  -0.6363961   1.2020815   0.6363961  )
       243           Ge  tau( 243) = (  -0.7071068   1.1313708   0.7071068  )
       244           Ge  tau( 244) = (  -0.7778175   1.2020815   0.7778175  )
       245           Ge  tau( 245) = (  -0.8485281   1.1313708   0.8485281  )
       246           Ge  tau( 246) = (  -0.9192388   1.2020815   0.9192388  )
       247           Ge  tau( 247) = (  -0.9899495   1.1313708   0.9899495  )
       248           Ge  tau( 248) = (  -1.0606602   1.2020815   1.0606602  )
       249           Ge  tau( 249) = (  -1.1313708   1.1313708   1.1313708  )
       250           Ge  tau( 250) = (  -1.2020815   1.2020815   1.2020815  )

   Crystallographic axes

     site n.     atom                  positions (cryst. coord.)
         1           Ge  tau(   1) = (  0.0003517 -0.0003517 -0.0003517  )
         2           Ge  tau(   2) = (  0.0496483  0.0503517  0.0503517  )
         3           Ge  tau(   3) = (  0.2000000  0.0000000  0.0000000  )
         4           Ge  tau(   4) = (  0.2500000  0.0500000  0.0500000  )
         5           Ge  tau(   5) = (  0.4000000  0.0000000  0.0000000  )
         6           Ge  tau(   6) = (  0.4500000  0.0500000  0.0500000  )
         7           Ge  tau(   7) = (  0.6000000  0.0000000  0.0000000  )
         8           Ge  tau(   8) = (  0.6500000  0.0500000  0.0500000  )
         9           Ge  tau(   9) = (  0.8000000  0.0000000  0.0000000  )
        10           Ge  tau(  10) = (  0.8500000  0.0500000  0.0500000  )
        11           Ge  tau(  11) = (  0.0000000  0.2000000  0.0000000  )
        12           Ge  tau(  12) = (  0.0500000  0.2500000  0.0500000  )
        13           Ge  tau(  13) = (  0.2000000  0.2000000  0.0000000  )
        14           Ge  tau(  14) = (  0.2500000  0.2500000  0.0500000  )
        15           Ge  tau(  15) = (  0.4000000  0.2000000  0.0000000  )
        16           Ge  tau(  16) = (  0.4500000  0.2500000  0.0500000  )
        17           Ge  tau(  17) = (  0.6000000  0.2000000  0.0000000  )
        18           Ge  tau(  18) = (  0.6500000  0.2500000  0.0500000  )
        19           Ge  tau(  19) = (  0.8000000  0.2000000  0.0000000  )
        20           Ge  tau(  20) = (  0.8500000  0.2500000  0.0500000  )
        21           Ge  tau(  21) = (  0.0000000  0.4000000  0.0000000  )
        22           Ge  tau(  22) = (  0.0500000  0.4500000  0.0500000  )
[...]
     atom   54 type  1   force =     0.00000089   -0.00000146   -0.00000202
     atom   55 type  1   force =     0.00000030   -0.00000248    0.00000103
     atom   56 type  1   force =    -0.00000167   -0.00000094    0.00000053
     atom   57 type  1   force =     0.00000190   -0.00000328    0.00000139
     atom   58 type  1   force =     0.00000205    0.00000197   -0.00000241
     atom   59 type  1   force =     0.00000836    0.00000167   -0.00000436
     atom   60 type  1   force =     0.00000377   -0.00000808    0.00000677
[...]
     atom  236 type  1   force =    -0.00000048    0.00000102   -0.00000036
     atom  237 type  1   force =     0.00000027   -0.00000039   -0.00000037
     atom  238 type  1   force =     0.00000001    0.00000128   -0.00000022
     atom  239 type  1   force =    -0.00000009    0.00000043    0.00000136
     atom  240 type  1   force =     0.00000004    0.00000060   -0.00000010
     atom  241 type  1   force =     0.00000138   -0.00000251   -0.00000138
     atom  242 type  1   force =    -0.00000006   -0.00000028    0.00000006
     atom  243 type  1   force =    -0.00000043   -0.00000106    0.00000043
     atom  244 type  1   force =    -0.00000012   -0.00000030    0.00000012
     atom  245 type  1   force =    -0.00000034   -0.00000176    0.00000034
     atom  246 type  1   force =    -0.00000001    0.00000126    0.00000001
     atom  247 type  1   force =    -0.00000110   -0.00000095    0.00000110
     atom  248 type  1   force =     0.00000005    0.00000042   -0.00000005
     atom  249 type  1   force =     0.00000050   -0.00000066   -0.00000050
     atom  250 type  1   force =     0.00000014    0.00000081   -0.00000014
     The Hubbard contrib.    to forces
     atom    1 type  1   force =     0.00000000    0.00000000    0.00000000
     atom    2 type  1   force =     0.00000000    0.00000000    0.00000000
     atom    3 type  1   force =     0.00000000    0.00000000    0.00000000
     atom    4 type  1   force =     0.00000000    0.00000000    0.00000000
     atom    5 type  1   force =     0.00000000    0.00000000    0.00000000
     atom    6 type  1   force =     0.00000000    0.00000000    0.00000000
     atom    7 type  1   force =     0.00000000    0.00000000    0.00000000
     atom    8 type  1   force =     0.00000000    0.00000000    0.00000000
     atom    9 type  1   force =     0.00000000    0.00000000    0.00000000
     atom   10 type  1   force =     0.00000000    0.00000000    0.00000000
     atom   11 type  1   force =     0.00000000    0.00000000    0.00000000
     atom   12 type  1   force =     0.00000000    0.00000000    0.00000000
     atom   13 type  1   force =     0.00000000    0.00000000    0.00000000
     atom   14 type  1   force =     0.00000000    0.00000000    0.00000000
     atom   15 type  1   force =     0.00000000    0.00000000    0.00000000
     atom   16 type  1   force =     0.00000000    0.00000000    0.00000000
     atom   17 type  1   force =     0.00000000    0.00000000    0.00000000
     atom   18 type  1   force =     0.00000000    0.00000000    0.00000000
     atom   19 type  1   force =     0.00000000    0.00000000    0.00000000
     atom   20 type  1   force =     0.00000000    0.00000000    0.00000000
     atom   21 type  1   force =     0.00000000    0.00000000    0.00000000
     atom   22 type  1   force =     0.00000000    0.00000000    0.00000000
     atom   23 type  1   force =     0.00000000    0.00000000    0.00000000
     atom   24 type  1   force =     0.00000000    0.00000000    0.00000000
     atom   25 type  1   force =     0.00000000    0.00000000    0.00000000
     atom   26 type  1   force =     0.00000000    0.00000000    0.00000000
     atom   27 type  1   force =     0.00000000    0.00000000    0.00000000
     atom   28 type  1   force =     0.00000000    0.00000000    0.00000000
     atom   29 type  1   force =     0.00000000    0.00000000    0.00000000
     atom   30 type  1   force =     0.00000000    0.00000000    0.00000000
     atom   31 type  1   force =     0.00000000    0.00000000    0.00000000
     atom   32 type  1   force =     0.00000000    0.00000000    0.00000000
     atom   33 type  1   force =     0.00000000    0.00000000    0.00000000
     atom   34 type  1   force =     0.00000000    0.00000000    0.00000000
     atom   35 type  1   force =     0.00000000    0.00000000    0.00000000
     atom   36 type  1   force =     0.00000000    0.00000000    0.00000000
     atom   37 type  1   force =     0.00000000    0.00000000    0.00000000
     atom   38 type  1   force =     0.00000000    0.00000000    0.00000000
     atom   39 type  1   force =     0.00000000    0.00000000    0.00000000
     atom   40 type  1   force =     0.00000000    0.00000000    0.00000000
     atom   41 type  1   force =     0.00000000    0.00000000    0.00000000
     atom   42 type  1   force =     0.00000000    0.00000000    0.00000000
     atom   43 type  1   force =     0.00000000    0.00000000    0.00000000
     atom   44 type  1   force =     0.00000000    0.00000000    0.00000000
     atom   45 type  1   force =     0.00000000    0.00000000    0.00000000
     atom   46 type  1   force =     0.00000000    0.00000000    0.00000000
     atom   47 type  1   force =     0.00000000    0.00000000    0.00000000
     atom   48 type  1   force =     0.00000000    0.00000000    0.00000000
     atom   49 type  1   force =     0.00000000    0.00000000    0.00000000
     atom   50 type  1   force =     0.00000000    0.00000000    0.00000000
     atom   51 type  1   force =     0.00000000    0.00000000    0.00000000
     atom   52 type  1   force =     0.00000000    0.00000000    0.00000000
     atom   53 type  1   force =     0.00000000    0.00000000    0.00000000
     atom   54 type  1   force =     0.00000000    0.00000000    0.00000000
     atom   55 type  1   force =     0.00000000    0.00000000    0.00000000
     atom   56 type  1   force =     0.00000000    0.00000000    0.00000000
     atom   57 type  1   force =     0.00000000    0.00000000    0.00000000
     atom   58 type  1   force =     0.00000000    0.00000000    0.00000000
     atom   59 type  1   force =     0.00000000    0.00000000    0.00000000
     atom   60 type  1   force =     0.00000000    0.00000000    0.00000000
[...]
     atom  236 type  1   force =     0.00000000    0.00000000    0.00000000
     atom  237 type  1   force =     0.00000000    0.00000000    0.00000000
     atom  238 type  1   force =     0.00000000    0.00000000    0.00000000
     atom  239 type  1   force =     0.00000000    0.00000000    0.00000000
     atom  240 type  1   force =     0.00000000    0.00000000    0.00000000
     atom  241 type  1   force =     0.00000000    0.00000000    0.00000000
     atom  242 type  1   force =     0.00000000    0.00000000    0.00000000
     atom  243 type  1   force =     0.00000000    0.00000000    0.00000000
     atom  244 type  1   force =     0.00000000    0.00000000    0.00000000
     atom  245 type  1   force =     0.00000000    0.00000000    0.00000000
     atom  246 type  1   force =     0.00000000    0.00000000    0.00000000
     atom  247 type  1   force =     0.00000000    0.00000000    0.00000000
     atom  248 type  1   force =     0.00000000    0.00000000    0.00000000
     atom  249 type  1   force =     0.00000000    0.00000000    0.00000000
     atom  250 type  1   force =     0.00000000    0.00000000    0.00000000
     The SCF correction term to forces
     atom    1 type  1   force =     0.00000000   -0.00000000    0.00000000
     atom    2 type  1   force =     0.00000000   -0.00000000    0.00000000
     atom    3 type  1   force =    -0.00000000   -0.00000000    0.00000000
     atom    4 type  1   force =    -0.00000000   -0.00000000    0.00000000
     atom    5 type  1   force =     0.00000000    0.00000000    0.00000000
     atom    6 type  1   force =     0.00000000    0.00000000   -0.00000000
     atom    7 type  1   force =     0.00000000    0.00000000    0.00000000
     atom    8 type  1   force =     0.00000000    0.00000000   -0.00000000
     atom    9 type  1   force =     0.00000000    0.00000000    0.00000000
     atom   10 type  1   force =     0.00000000    0.00000000    0.00000000
     atom   11 type  1   force =    -0.00000000   -0.00000000    0.00000000
     atom   12 type  1   force =    -0.00000000   -0.00000000    0.00000000
     atom   13 type  1   force =    -0.00000000   -0.00000000    0.00000000
     atom   14 type  1   force =    -0.00000000   -0.00000000   -0.00000000
     atom   15 type  1   force =    -0.00000000   -0.00000000   -0.00000000
     atom   16 type  1   force =    -0.00000000   -0.00000000   -0.00000000
     atom   17 type  1   force =     0.00000000   -0.00000000   -0.00000000
     atom   18 type  1   force =     0.00000000   -0.00000000   -0.00000000
     atom   19 type  1   force =     0.00000000   -0.00000000   -0.00000000
     atom   20 type  1   force =    -0.00000000   -0.00000000   -0.00000000
     atom   21 type  1   force =    -0.00000000   -0.00000000   -0.00000000
     atom   22 type  1   force =    -0.00000000   -0.00000000   -0.00000000
     atom   23 type  1   force =    -0.00000000   -0.00000000    0.00000000
     atom   24 type  1   force =     0.00000000   -0.00000000    0.00000000
     atom   25 type  1   force =     0.00000000   -0.00000000    0.00000000
     atom   26 type  1   force =     0.00000000   -0.00000000    0.00000000
     atom   27 type  1   force =     0.00000000   -0.00000000   -0.00000000
     atom   28 type  1   force =     0.00000000    0.00000000   -0.00000000
     atom   29 type  1   force =    -0.00000000    0.00000000   -0.00000000
     atom   30 type  1   force =    -0.00000000    0.00000000   -0.00000000
     atom   31 type  1   force =    -0.00000000   -0.00000000    0.00000000
     atom   32 type  1   force =     0.00000000   -0.00000000    0.00000000
     atom   33 type  1   force =     0.00000000   -0.00000000    0.00000000
     atom   34 type  1   force =     0.00000000   -0.00000000    0.00000000
     atom   35 type  1   force =     0.00000000   -0.00000000    0.00000000
     atom   36 type  1   force =     0.00000000   -0.00000000    0.00000000
     atom   37 type  1   force =     0.00000000    0.00000000    0.00000000
     atom   38 type  1   force =     0.00000000    0.00000000   -0.00000000
     atom   39 type  1   force =    -0.00000000    0.00000000   -0.00000000
     atom   40 type  1   force =    -0.00000000    0.00000000   -0.00000000
     atom   41 type  1   force =     0.00000000    0.00000000    0.00000000
     atom   42 type  1   force =     0.00000000    0.00000000    0.00000000
     atom   43 type  1   force =     0.00000000   -0.00000000    0.00000000
     atom   44 type  1   force =     0.00000000    0.00000000    0.00000000
     atom   45 type  1   force =     0.00000000    0.00000000    0.00000000
     atom   46 type  1   force =     0.00000000    0.00000000    0.00000000
     atom   47 type  1   force =     0.00000000    0.00000000    0.00000000
     atom   48 type  1   force =     0.00000000    0.00000000   -0.00000000
     atom   49 type  1   force =     0.00000000    0.00000000   -0.00000000
     atom   50 type  1   force =     0.00000000    0.00000000    0.00000000
     atom   51 type  1   force =    -0.00000000    0.00000000    0.00000000
     atom   52 type  1   force =    -0.00000000    0.00000000    0.00000000
     atom   53 type  1   force =    -0.00000000    0.00000000    0.00000000
     atom   54 type  1   force =    -0.00000000   -0.00000000    0.00000000
     atom   55 type  1   force =     0.00000000    0.00000000   -0.00000000
     atom   56 type  1   force =     0.00000000    0.00000000   -0.00000000
     atom   57 type  1   force =     0.00000000    0.00000000   -0.00000000
     atom   58 type  1   force =     0.00000000    0.00000000   -0.00000000
     atom   59 type  1   force =     0.00000000    0.00000000   -0.00000000
     atom   60 type  1   force =     0.00000000    0.00000000   -0.00000000
[...]
     atom  236 type  1   force =     0.00000000   -0.00000000    0.00000000
     atom  237 type  1   force =     0.00000000    0.00000000   -0.00000000
     atom  238 type  1   force =     0.00000000    0.00000000   -0.00000000
     atom  239 type  1   force =     0.00000000    0.00000000   -0.00000000
     atom  240 type  1   force =     0.00000000    0.00000000   -0.00000000
     atom  241 type  1   force =     0.00000000   -0.00000000    0.00000000
     atom  242 type  1   force =     0.00000000   -0.00000000    0.00000000
     atom  243 type  1   force =     0.00000000   -0.00000000    0.00000000
     atom  244 type  1   force =     0.00000000   -0.00000000    0.00000000
     atom  245 type  1   force =     0.00000000   -0.00000000    0.00000000
     atom  246 type  1   force =     0.00000000    0.00000000    0.00000000
     atom  247 type  1   force =     0.00000000    0.00000000    0.00000000
     atom  248 type  1   force =     0.00000000    0.00000000    0.00000000
     atom  249 type  1   force =     0.00000000    0.00000000    0.00000000
     atom  250 type  1   force =     0.00000000    0.00000000    0.00000000

     Total force =     0.008471     Total SCF correction =     0.000000

     Computing stress (Cartesian axis) and pressure

          total   stress  (Ry/bohr**3)                   (kbar)     P=        2.61
   0.00001776  -0.00000000   0.00000034            2.61       -0.00        0.05
  -0.00000000   0.00001775   0.00000000           -0.00        2.61        0.00
   0.00000034   0.00000000   0.00001776            0.05        0.00        2.61

     kinetic stress (kbar)   1857.09     -0.00     -0.03
                               -0.00   1857.09      0.00
                               -0.03      0.00   1857.09

     local   stress (kbar)    844.09     -0.00     -0.34
                               -0.00    844.09      0.00
                               -0.34      0.00    844.09

     nonloc. stress (kbar)    765.62     -0.00     -0.02
                               -0.00    765.62      0.00
                               -0.02      0.00    765.62

     hartree stress (kbar)    184.45      0.00      0.05
                                0.00    184.45     -0.00
                                0.05     -0.00    184.45

     exc-cor stress (kbar)   2966.46      0.00      0.00
                                0.00   2966.46     -0.00
                                0.00     -0.00   2966.46

     corecor stress (kbar)  -4080.20     -0.00     -0.01
                               -0.00  -4080.20      0.00
                               -0.01      0.00  -4080.20

     ewald   stress (kbar)  -2534.92      0.00      0.40
                                0.00  -2534.92     -0.00
                                0.40     -0.00  -2534.92

     hubbard stress (kbar)      0.00      0.00      0.00
                                0.00      0.00      0.00
                                0.00      0.00      0.00

     DFT-D   stress (kbar)      0.00      0.00      0.00
                                0.00      0.00      0.00
                                0.00      0.00      0.00

     XDM     stress (kbar)      0.00      0.00      0.00
                                0.00      0.00      0.00
                                0.00      0.00      0.00

     dft-nl  stress (kbar)      0.00      0.00      0.00
                                0.00      0.00      0.00
                                0.00      0.00      0.00

     TS-vdW  stress (kbar)      0.00      0.00      0.00
                                0.00      0.00      0.00
                                0.00      0.00      0.00

     Writing output data file ./ge.save/

     General routines

     Parallel routines

     PAW routines

   This run was terminated on:  19:23: 0  23Jan2022

   JOB DONE.
[1642983780.126318] [node2003:3355942:0]          mpool.c:43   UCX  WARN  object 0x37133c0 was not returned to mpool ucp_requests
[1642983780.134380] [node2003:3355937:0]          mpool.c:43   UCX  WARN  object 0x336edc0 was not returned to mpool ucp_requests
[1642983780.141936] [node2003:3355958:0]          mpool.c:43   UCX  WARN  object 0x3f22c40 was not returned to mpool ucp_requests
[1642983780.143921] [node2003:3355938:0]          mpool.c:43   UCX  WARN  object 0x35124c0 was not returned to mpool ucp_requests
[1642983780.144921] [node2003:3355941:0]          mpool.c:43   UCX  WARN  object 0x40bd980 was not returned to mpool ucp_requests
[1642983780.145116] [node2003:3355963:0]          mpool.c:43   UCX  WARN  object 0x423dfc0 was not returned to mpool ucp_requests
[1642983780.145249] [node2003:3355934:0]          mpool.c:43   UCX  WARN  object 0x2ca3000 was not returned to mpool ucp_requests